18
0 1 0.000000
C    -0.74196402   -0.39672572    1.21379406
C     0.74607816   -0.04149791    1.27147422
C     1.43035964   -0.35393373   -0.06167175
C     0.74914066    0.39543164   -1.20980247
C    -0.74444518    0.06296475   -1.27605704
C    -1.43916927    0.33376098    0.06226298
H     2.49495079   -0.09832509   -0.01661597
H     0.85273327    1.03141779    1.48656447
H     1.23618500   -0.57957092    2.09061582
H    -0.84402390   -1.48139833    1.06721531
H    -1.23030816   -0.15839507    2.16521908
H     0.87135879    1.47642934   -1.05200633
H     1.23333289    0.15785539   -2.16353587
H    -1.22708342    0.63567913   -2.07622344
H    -0.86173796   -0.99987569   -1.53194126
H    -1.42088496    1.41458690    0.26312319
H    -2.49376318    0.04033519    0.00795399
H     1.37031279   -1.43531597   -0.25086011
18
0 1 0.000186
C    -0.73880986   -0.40215205    1.21524047
C     0.74637542   -0.03591404    1.26908361
C     1.42581672   -0.36344123   -0.06232700
C     0.75407486    0.39935528   -1.20675661
C    -0.74291994    0.08171883   -1.27858631
C    -1.44453720    0.32043322    0.06334584
H     2.49474981   -0.12652309   -0.01990775
H     0.84787127    1.04053553    1.46851044
H     1.24018402   -0.56014743    2.09484742
H    -0.83093971   -1.48831995    1.07360492
H    -1.22910054   -0.16420448    2.16578656
H     0.88921725    1.47761018   -1.04119765
H     1.23549991    0.16305987   -2.16223725
H    -1.22075444    0.67929923   -2.06343269
H    -0.86699655   -0.97253086   -1.56477762
H    -1.45344277    1.39913126    0.27565437
H    -2.49187698    0.00325086    0.00088265
H     1.34574152   -1.44382929   -0.24985104
18
0 1 0.000506
C    -0.73608110   -0.40714647    1.21707848
C     0.74643303   -0.03088153    1.26696730
C     1.42162125   -0.37197339   -0.06277083
C     0.75926416    0.40285492   -1.20419647
C    -0.74121658    0.10075654   -1.28100799
C    -1.45002076    0.30638993    0.06392950
H     2.49415153   -0.15189665   -0.02239299
H     0.84330511    1.04849498    1.45230567
H     1.24358647   -0.54263971    2.09842855
H    -0.81905967   -1.49482985    1.08201608
H    -1.22811628   -0.16796375    2.16644369
H     0.90790781    1.47832892   -1.03261990
H     1.23764685    0.16623133   -2.16115440
H    -1.21391289    0.72358120   -2.04928905
H    -0.87238897   -0.94355560   -1.59836059
H    -1.48773025    1.38208273    0.28747124
H    -2.48905631   -0.03554975   -0.00744958
H     1.32363247   -1.45114007   -0.24874091
18
0 1 0.000954
C    -0.73362865   -0.41173449    1.21918989
C     0.74638507   -0.02634376    1.26507231
C     1.41778246   -0.37961199   -0.06305866
C     0.76453389    0.40595575   -1.20201366
C    -0.73948556    0.12000092   -1.28324447
C    -1.45558720    0.29173358    0.06405459
H     2.49328630   -0.17464034   -0.02427223
H     0.83916112    1.05546520    1.43781879
H     1.24654470   -0.52690733    2.10144458
H    -0.80812767   -1.50088295    1.09194485
H    -1.22725915   -0.17006039    2.16713366
H     0.92701579    1.47859174   -1.02585652
H     1.23963405    0.16779984   -2.16025649
H    -1.20668039    0.76821725   -2.03379668
H    -0.87807894   -0.91306641   -1.63224855
H    -1.52339910    1.36351723    0.29841461
H    -2.48525646   -0.07571297   -0.01678221
H     1.30384083   -1.45745272   -0.24755216
18
0 1 0.001527
C    -0.73136941   -0.41592789    1.22147430
C     0.74631894   -0.02226996    1.26339205
C     1.41431568   -0.38642016   -0.06323640
C     0.76973472    0.40869012   -1.20015565
C    -0.73781342    0.13935326   -1.28524385
C    -1.46118651    0.27657463    0.06376955
H     2.49228559   -0.19488681   -0.02573284
H     0.83552891    1.06155674    1.42493511
H     1.24916878   -0.51285436    2.10396964
H    -0.79795807   -1.50646574    1.10299798
H    -1.22644376   -0.17083079    2.16781541
H     0.94620396    1.47844213   -1.02058422
H     1.24135069    0.16808247   -2.15953270
H    -1.19908799    0.81303990   -2.01684559
H    -0.88420355   -0.88111976   -1.66619322
H    -1.56026374    1.34347774    0.30836322
H    -2.48033487   -0.11710986   -0.02695228
H     1.28630982   -1.46290545   -0.24634524
18
0 1 0.002218
C    -0.72926750   -0.41974429    1.22388037
C     0.74624964   -0.01862732    1.26189315
C     1.41122078   -0.39246761   -0.06332737
C     0.77480826    0.41109493   -1.19856577
C    -0.73623831    0.15874694   -1.28696626
C    -1.46677288    0.26099735    0.06308589
H     2.49121140   -0.21281453   -0.02683995
H     0.83235352    1.06686367    1.41354896
H     1.25149278   -0.50035727    2.10607116
H    -0.78846837   -1.51157813    1.11484690
H    -1.22567848   -0.17051053    2.16845882
H     0.96523421    1.47792030   -1.01655637
H     1.24277956    0.16734478   -2.15895936
H    -1.19113158    0.85791438   -1.99839420
H    -0.89085628   -0.84770849   -1.70005847
H    -1.59821159    1.32195830    0.31724799
H    -2.47416623   -0.15957861   -0.03785556
H     1.27084780   -1.46761718   -0.24513883
18
0 1 0.003018
C    -0.72731061   -0.42321724    1.22633474
C     0.74619382   -0.01536548    1.26055489
C     1.40844561   -0.39784083   -0.06335398
C     0.77970537    0.41320631   -1.19720092
C    -0.73476697    0.17811804   -1.28836221
C    -1.47226723    0.24509919    0.06202747
H     2.49012576   -0.22867944   -0.02769473
H     0.82961334    1.07150846    1.40347541
H     1.25357212   -0.48930167    2.10781087
H    -0.77958694   -1.51623948    1.12726025
H    -1.22494989   -0.16929086    2.16903109
H     0.98397929    1.47706457   -1.01359523
H     1.24386801    0.16576460   -2.15851417
H    -1.18283633    0.90265737   -1.97843631
H    -0.89800151   -0.81287046   -1.73364870
H    -1.63698855    1.29898823    0.32508375
H    -2.46666632   -0.20283865   -0.04940207
H     1.25721356   -1.47170658   -0.24397352
18
0 1 0.003913
C    -0.72548123   -0.42637544    1.22881034
C     0.74614738   -0.01244980    1.25937197
C     1.40597893   -0.40259999   -0.06332468
C     0.78440758    0.41504979   -1.19604729
C    -0.73342140    0.19746268   -1.28940123
C    -1.47763126    0.22891276    0.06059089
H     2.48904040   -0.24266781   -0.02830404
H     0.82724246    1.07556130    1.39459709
H     1.25541522   -0.47950648    2.10927258
H    -0.77126471   -1.52044729    1.14008572
H    -1.22425626   -0.16726848    2.16950781
H     1.00235621    1.47591076   -1.01155083
H     1.24464541    0.16344959   -2.15817628
H    -1.17425681    0.94706909   -1.95696322
H    -0.90553397   -0.77666074   -1.76675473
H    -1.67633970    1.27454850    0.33184825
H    -2.45781337   -0.24668366   -0.06157782
H     1.24522905   -1.47524812   -0.24282789
18
0 1 0.004894
C    -0.72378688   -0.42922789    1.23128760
C     0.74610963   -0.00986409    1.25832521
C     1.40380098   -0.40679412   -0.06324880
C     0.78889109    0.41665822   -1.19507641
C    -0.73217886    0.21679156   -1.29008174
C    -1.48283595    0.21243633    0.05879415
H     2.48800986   -0.25490606   -0.02871423
H     0.82521170    1.07908595    1.38682053
H     1.25702969   -0.47091373    2.11048158
H    -0.76352180   -1.52423329    1.15320888
H    -1.22361707   -0.16455332    2.16986398
H     1.02027969    1.47450040   -1.01035919
H     1.24508984    0.16051412   -2.15792121
H    -1.16542232    0.99101376   -1.93402435
H    -0.91349028   -0.73912089   -1.79914471
H    -1.71603112    1.24866525    0.33743455
H    -2.44756425   -0.29090947   -0.07437244
H     1.23478801   -1.47830842   -0.24173273
18
0 1 0.005948
C    -0.72224245   -0.43178846    1.23372547
C     0.74607792   -0.00758543    1.25740678
C     1.40187926   -0.41045032   -0.06313185
C     0.79314177    0.41803575   -1.19427493
C    -0.73103917    0.23604222   -1.29034876
C    -1.48781732    0.19574624    0.05662328
H     2.48703741   -0.26555245   -0.02896543
H     0.82351371    1.08212717    1.38007407
H     1.25844686   -0.46343346    2.11146392
H    -0.75637340   -1.52757806    1.16653362
H    -1.22302806   -0.16118700    2.17007024
H     1.03770175    1.47286050   -1.00997533
H     1.24521424    0.15701454   -2.15773839
H    -1.15629035    1.03437540   -1.90960788
H    -0.92191548   -0.70028949   -1.83072293
H    -1.75595382    1.22138600    0.34176577
H    -2.43583114   -0.33538283   -0.08768768
H     1.22575953   -1.48095592   -0.24068069
18
0 1 0.007062
C    -0.72083942   -0.43407313    1.23610243
C     0.74601927   -0.00559082    1.25660155
C     1.40018916   -0.41362901   -0.06297147
C     0.79714853    0.41921983   -1.19363008
C    -0.72998511    0.25518263   -1.29019172
C    -1.49253242    0.17889050    0.05408930
H     2.48613405   -0.27474965   -0.02904032
H     0.82208472    1.08475092    1.37425315
H     1.25964042   -0.45695355    2.11228366
H    -0.74981985   -1.53050595    1.17993844
H    -1.22254124   -0.15725641    2.17011489
H     1.05456989    1.47101976   -1.01030635
H     1.24500246    0.15302102   -2.15762463
H    -1.14678831    1.07709331   -1.88364243
H    -0.93080168   -0.66017504   -1.86139423
H    -1.79601160    1.19272455    0.34481069
H    -2.42251034   -0.38001599   -0.10150783
H     1.21798759   -1.48323803   -0.23966528
18
0 1 0.008218
C    -0.71960958   -0.43610686    1.23839734
C     0.74593286   -0.00385032    1.25590578
C     1.39870527   -0.41638103   -0.06277203
C     0.80092255    0.42023135   -1.19313376
C    -0.72900653    0.27422141   -1.28958366
C    -1.49694457    0.16188546    0.05118632
H     2.48529769   -0.28267259   -0.02897220
H     0.82085775    1.08701243    1.36923236
H     1.26062666   -0.45135411    2.11294455
H    -0.74384169   -1.53304034    1.19337097
H    -1.22215542   -0.15284350    2.16997941
H     1.07086468    1.46900952   -1.01126231
H     1.24449635    0.14863282   -2.15755622
H    -1.13696686    1.11907702   -1.85613369
H    -0.94004553   -0.61885063   -1.89097311
H    -1.83592393    1.16269181    0.34656144
H    -2.40756959   -0.42467479   -0.11587060
H     1.21130622   -1.48518456   -0.23868216
18
0 1 0.009398
C    -0.71856630   -0.43790516    1.24060038
C     0.74578924   -0.00234466    1.25531221
C     1.39739577   -0.41874072   -0.06254598
C     0.80445999    0.42108538   -1.19276623
C    -0.72806909    0.29314044   -1.28850824
C    -1.50100961    0.14476472    0.04790787
H     2.48451646   -0.28945299   -0.02876175
H     0.81980407    1.08891794    1.36494669
H     1.26140938   -0.44657345    2.11350081
H    -0.73844654   -1.53521383    1.20675088
H    -1.22191183   -0.14798193    2.16964976
H     1.08662199    1.46685163   -1.01279657
H     1.24369376    0.14387806   -2.15752655
H    -1.12691440    1.16021463   -1.82705790
H    -0.94958561   -0.57635284   -1.91935783
H    -1.87554706    1.13132411    0.34702671
H    -2.39100073   -0.46916465   -0.13083614
H     1.20559385   -1.48685025   -0.23774650
18
0 1 0.010586
C    -0.71773589   -0.43947671    1.24270617
C     0.74556594   -0.00106087    1.25480623
C     1.39623304   -0.42074502   -0.06228028
C     0.80779230    0.42180590   -1.19252596
C    -0.72716738    0.31192172   -1.28694544
C    -1.50468801    0.12755498    0.04423926
H     2.48379367   -0.29521550   -0.02839576
H     0.81888193    1.09052785    1.36132996
H     1.26195217   -0.44251329    2.11396919
H    -0.73366954   -1.53701817    1.22009056
H    -1.22184339   -0.14265969    2.16909342
H     1.10184856    1.46457247   -1.01489998
H     1.24262630    0.13876670   -2.15753473
H    -1.11665387    1.20036540   -1.79646301
H    -0.95941415   -0.53274522   -1.94647502
H    -1.91476121    1.09867977    0.34611032
H    -2.37276757   -0.51329824   -0.14646888
H     1.20075851   -1.48827476   -0.23683630
18
0 1 0.011761
C    -0.71710947   -0.44084149    1.24469407
C     0.74525303    0.00002421    1.25439138
C     1.39519756   -0.42242189   -0.06198262
C     0.81090904    0.42239768   -1.19240877
C    -0.72629550    0.33055317   -1.28488848
C    -1.50795466    0.11028832    0.04019441
H     2.48312014   -0.30007062   -0.02788778
H     0.81803689    1.09187213    1.35830670
H     1.26226584   -0.43909936    2.11437578
H    -0.72951795   -1.53849804    1.23334060
H    -1.22198207   -0.13691887    2.16830063
H     1.11653069    1.46218357   -1.01753189
H     1.24125614    0.13332414   -2.15756969
H    -1.10616621    1.23947355   -1.76435424
H    -0.96952440   -0.48809035   -1.97215862
H    -1.95340756    1.06478647    0.34378121
H    -2.35286137   -0.55700626   -0.16267706
H     1.19667023   -1.48945439   -0.23596375
18
0 1 0.012906
C    -0.71671711   -0.44200463    1.24656573
C     0.74485054    0.00091985    1.25404465
C     1.39425895   -0.42381135   -0.06164186
C     0.81381846    0.42289151   -1.19240279
C    -0.72542357    0.34903373   -1.28231743
C    -1.51078727    0.09297090    0.03575171
H     2.48247961   -0.30414071   -0.02724401
H     0.81721125    1.09298129    1.35579934
H     1.26237185   -0.43624185    2.11473392
H    -0.72602537   -1.53964965    1.24650788
H    -1.22233762   -0.13075701    2.16724729
H     1.13070200    1.45971090   -1.02070270
H     1.23958244    0.12756320   -2.15763858
H    -1.09541357    1.27743070   -1.73080038
H    -0.97986152   -0.44251407   -1.99628213
H    -1.99129246    1.02975637    0.34001092
H    -2.33128373   -0.60016915   -0.17942550
H     1.19322765   -1.49042504   -0.23513595
18
0 1 0.014002
C    -0.71657153   -0.44299616    1.24831171
C     0.74432454    0.00165624    1.25377686
C     1.39341115   -0.42493700   -0.06127114
C     0.81653388    0.42328076   -1.19250571
C    -0.72454651    0.36734438   -1.27921963
C    -1.51315152    0.07565178    0.03090793
H     2.48186683   -0.30752223   -0.02647052
H     0.81637871    1.09387168    1.35376661
H     1.26223546   -0.43388206    2.11505251
H    -0.72319929   -1.54049372    1.25958649
H    -1.22295631   -0.12414751    2.16589790
H     1.14440534    1.45716879   -1.02438181
H     1.23760422    0.12148946   -2.15772779
H    -1.08447665    1.31417664   -1.69582763
H    -0.99034365   -0.39605885   -2.01881172
H    -2.02830543    0.99363267    0.33482381
H    -2.30806882   -0.64259833   -0.19674214
H     1.19033036   -1.49119788   -0.23436726
18
0 1 0.015032
C    -0.71669355   -0.44381147    1.24992570
C     0.74365688    0.00223304    1.25357109
C     1.39262610   -0.42582821   -0.06085084
C     0.81907242    0.42359517   -1.19272025
C    -0.72364053    0.38546920   -1.27558428
C    -1.51502133    0.05834228    0.02565858
H     2.48127913   -0.31030661   -0.02554045
H     0.81549184    1.09456239    1.35215031
H     1.26185476   -0.43195833    2.11537855
H    -0.72108774   -1.54105027    1.27258117
H    -1.22386090   -0.11711332    2.16421966
H     1.15765235    1.45455455   -1.02858631
H     1.23532080    0.11509574   -2.15784258
H    -1.07342748    1.34961548   -1.65947625
H    -1.00087316   -0.34879305   -2.03971440
H    -2.06434253    0.95643119    0.32827930
H    -2.28322922   -0.68420253   -0.21469346
H     1.18790281   -1.49180680   -0.23364130
18
0 1 0.015979
C    -0.71705914   -0.44446797    1.25139552
C     0.74287610    0.00266815    1.25343086
C     1.39188678   -0.42650060   -0.06040441
C     0.82141344    0.42383244   -1.19302645
C    -0.72272503    0.40339533   -1.27141209
C    -1.51639216    0.04107264    0.02001657
H     2.48068788   -0.31255187   -0.02450009
H     0.81453104    1.09509649    1.35089319
H     1.26123951   -0.43041725    2.11568607
H    -0.71967440   -1.54132464    1.28550587
H    -1.22505148   -0.10963865    2.16221808
H     1.17046113    1.45190293   -1.03331898
H     1.23266222    0.10839112   -2.15797914
H    -1.06231691    1.38365405   -1.62172958
H    -1.01143604   -0.30083515   -2.05887886
H    -2.09924762    0.91826237    0.32037514
H    -2.25676487   -0.72485349   -0.23325489
H     1.18587339   -1.49224302   -0.23296907
18
0 1 0.016827
C    -0.71772143   -0.44496983    1.25272397
C     0.74192893    0.00296814    1.25334241
C     1.39118147   -0.42698277   -0.05991396
C     0.82360274    0.42401463   -1.19342845
C    -0.72175301    0.42108040   -1.26670942
C    -1.51723871    0.02388943    0.01398545
H     2.48010682   -0.31435294   -0.02329079
H     0.81345285    1.09545913    1.34997295
H     1.26037419   -0.42922414    2.11602253
H    -0.71901018   -1.54131301    1.29835916
H    -1.22657635   -0.10171104    2.15983356
H     1.18286777    1.44920109   -1.03855507
H     1.22966889    0.10138129   -2.15811969
H    -1.05107305    1.41624536   -1.58267434
H    -1.02204904   -0.25223958   -2.07629737
H    -2.13299924    0.87921176    0.31104422
H    -2.22867733   -0.76449138   -0.25237745
H     1.18418131   -1.49253702   -0.23234525
18
0 1 0.017563
C    -0.71865586   -0.44532842    1.25389313
C     0.74083860    0.00314456    1.25331483
C     1.39050148   -0.42729349   -0.05938284
C     0.82560103    0.42414894   -1.19393199
C    -0.72073566    0.43855019   -1.26145798
C    -1.51754958    0.00677823    0.00756485
H     2.47951431   -0.31576181   -0.02197302
H     0.81227345    1.09567890    1.34933222
H     1.25928052   -0.42833569    2.11635444
H    -0.71909302   -1.54104162    1.31119879
H    -1.22845506   -0.09331082    2.15702143
H     1.19493852    1.44644591   -1.04434650
H     1.22624044    0.09403859   -2.15828520
H    -1.03978241    1.44732130   -1.54250473
H    -1.03261154   -0.20317139   -2.09187005
H    -2.16539477    0.83939387    0.30032722
H    -2.19914971   -0.80295107   -0.27198057
H     1.18275897   -1.49268852   -0.23178392
18
0 1 0.018177
C    -0.71986594   -0.44555627    1.25490180
C     0.73959676    0.00321328    1.25332493
C     1.38983089   -0.42744220   -0.05881884
C     0.82743010    0.42422892   -1.19450608
C    -0.71966947    0.45581637   -1.25565789
C    -1.51732234   -0.01026010    0.00075609
H     2.47890940   -0.31681740   -0.02052803
H     0.81095270    1.09577302    1.34895764
H     1.25793283   -0.42770446    2.11671981
H    -0.71993077   -1.54049754    1.32406138
H    -1.23070975   -0.08439218    2.15374523
H     1.20669093    1.44362821   -1.05069746
H     1.22233604    0.08636896   -2.15846762
H    -1.02848618    1.47684999   -1.50129800
H    -1.04303001   -0.15377005   -2.10553581
H    -2.19627957    0.79890579    0.28833570
H    -2.16825487   -0.84016932   -0.29203470
H     1.18157414   -1.49272761   -0.23126517
18
0 1 0.018661
C    -0.72135236   -0.44566027    1.25574077
C     0.73822552    0.00317940    1.25338449
C     1.38916212   -0.42745743   -0.05822004
C     0.82907577    0.42427803   -1.19516445
C    -0.71857059    0.47283342   -1.24931856
C    -1.51654046   -0.02717315   -0.00642221
H     2.47829416   -0.31757513   -0.01898628
H     0.80953624    1.09574454    1.34881066
H     1.25637421   -0.42731735    2.11710108
H    -0.72150132   -1.53969380    1.33692002
H    -1.23332972   -0.07500468    2.14998383
H     1.21811797    1.44075719   -1.05758181
H     1.21793294    0.07840647   -2.15866442
H    -1.01721901    1.50476959   -1.45901863
H    -1.05323046   -0.10408604   -2.11732103
H    -2.22563037    0.75778620    0.27517506
H    -2.13594623   -0.87610594   -0.31253458
H     1.18059550   -1.49264501   -0.23078585
18
0 1 0.019010
C    -0.72309889   -0.44564067    1.25639219
C     0.73670983    0.00304746    1.25347946
C     1.38851599   -0.42735141   -0.05759966
C     0.83052185    0.42430395   -1.19587980
C    -0.71742129    0.48954030   -1.24246693
C    -1.51522749   -0.04389963   -0.01392526
H     2.47766891   -0.31804826   -0.01734069
H     0.80800613    1.09561405    1.34889326
H     1.25458648   -0.42716318    2.11750767
H    -0.72378389   -1.53863724    1.34965251
H    -1.23634885   -0.06524017    2.14573103
H     1.22916599    1.43784637   -1.06493403
H     1.21303109    0.07022883   -2.15888992
H    -1.00595674    1.53101125   -1.41567274
H    -1.06328482   -0.05405589   -2.12734065
H    -2.25357008    0.71603461    0.26081915
H    -2.10219672   -0.91067100   -0.33344665
H     1.17982292   -1.49247351   -0.23035510
18
0 1 0.019219
C    -0.72511573   -0.44551878    1.25685336
C     0.73505196    0.00283625    1.25361870
C     1.38785086   -0.42716389   -0.05695973
C     0.83182265    0.42432765   -1.19665896
C    -0.71624157    0.50599130   -1.23508087
C    -1.51336817   -0.06047253   -0.02177250
H     2.47699935   -0.31838113   -0.01563491
H     0.80639539    1.09538437    1.34914059
H     1.25255900   -0.42719332    2.11795217
H    -0.72675821   -1.53732448    1.36232272
H    -1.23981205   -0.05507761    2.14094506
H     1.23996689    1.43488088   -1.07271307
H     1.20762344    0.06188129   -2.15914517
H    -0.99482813    1.55561105   -1.37149321
H    -1.07303247   -0.00387752   -2.13554435
H    -2.27992112    0.67377629    0.24540592
H    -2.06728002   -0.94379114   -0.35466661
H     1.17911891   -1.49222539   -0.22992639
18
0 1 0.019286
C    -0.72754432   -0.44523201    1.25699934
C     0.73314866    0.00250584    1.25379229
C     1.38713423   -0.42681251   -0.05628329
C     0.83279023    0.42430667   -1.19750899
C    -0.71486488    0.52202623   -1.22695228
C    -1.51066392   -0.07679422   -0.03004706
H     2.47626727   -0.31839070   -0.01375468
H     0.80451584    1.09500269    1.34963204
H     1.25020994   -0.42746016    2.11841889
H    -0.73091218   -1.53554269    1.37506034
H    -1.24395985   -0.04411938    2.13509606
H     1.25029016    1.43174370   -1.08137345
H     1.20109430    0.05308887   -2.15936356
H    -0.98362810    1.57776050   -1.32634685
H    -1.08210855    0.04619311   -2.14107724
H    -2.30370277    0.63105433    0.22869918
H    -2.03072995   -0.97477542   -0.37621569
H     1.17859132   -1.49184246   -0.22960076
18
0 1 0.019221
C    -0.72999598   -0.44495544    1.25715780
C     0.73123723    0.00217423    1.25397761
C     1.38641504   -0.42647528   -0.05560862
C     0.83379205    0.42430105   -1.19836899
C    -0.71356079    0.53800584   -1.21872431
C    -1.50788754   -0.09305040   -0.03843350
H     2.47553688   -0.31842054   -0.01187641
H     0.80262898    1.09463686    1.35013002
H     1.24782912   -0.42773057    2.11890548
H    -0.73515382   -1.53386937    1.38781648
H    -1.24817147   -0.03312252    2.12933461
H     1.26069316    1.42871683   -1.09003860
H     1.19463280    0.04426044   -2.15969585
H    -0.97262392    1.59965822   -1.28103040
H    -1.09133354    0.09625056   -2.14631953
H    -2.32729104    0.58838326    0.21162145
H    -1.99401827   -1.00549950   -0.39786621
H     1.17805284   -1.49147860   -0.22927451
18
0 1 0.019028
C    -0.73285046   -0.44450724    1.25698280
C     0.72909126    0.00171508    1.25420156
C     1.38566565   -0.42597152   -0.05490021
C     0.83444195    0.42425644   -1.19930135
C    -0.71207110    0.55356173   -1.20977430
C    -1.50427729   -0.10905450   -0.04720849
H     2.47473714   -0.31805992   -0.00982250
H     0.80048217    1.09410841    1.35089638
H     1.24513638   -0.42827296    2.11939625
H    -0.74056929   -1.53172524    1.40059567
H    -1.25304432   -0.02136016    2.12247003
H     1.27059390    1.42554184   -1.09960221
H     1.18700603    0.03501067   -2.15997926
H    -0.96157306    1.61907881   -1.23496044
H    -1.09977973    0.14594421   -2.14886882
H    -2.34813792    0.54545131    0.19339860
H    -1.95586703   -1.03400675   -0.41967859
H     1.17773097   -1.49096876   -0.22906028
18
0 1 0.018716
C    -0.73592061   -0.44396739    1.25658700
C     0.72682794    0.00118860    1.25445060
C     1.38490652   -0.42539826   -0.05420222
C     0.83491036    0.42420965   -1.20024838
C    -0.71055408    0.56874302   -1.20039324
C    -1.50017014   -0.12477563   -0.05619376
H     2.47392118   -0.31758749   -0.00775585
H     0.79830710    1.09350971    1.35180552
H     1.24224098   -0.42898983    2.11992166
H    -0.74662270   -1.52931515    1.41319114
H    -1.25831552   -0.00929876    2.11499323
H     1.28015367    1.42227665   -1.10954086
H     1.17877581    0.02568366   -2.16027466
H    -0.95056317    1.63676392   -1.18823770
H    -1.10796745    0.19562529   -2.14979451
H    -2.36749965    0.50222158    0.17430535
H    -1.91659714   -1.06099921   -0.44152314
H     1.17748678   -1.49040194   -0.22883783
18
0 1 0.018294
C    -0.73920195   -0.44334902    1.25596061
C     0.72444691    0.00060839    1.25472227
C     1.38411927   -0.42478266   -0.05349820
C     0.83516365    0.42417427   -1.20122406
C    -0.70896744    0.58360240   -1.19057854
C    -1.49556045   -0.14025338   -0.06538206
H     2.47305735   -0.31700187   -0.00564209
H     0.79602705    1.09283915    1.35281135
H     1.23916072   -0.42984047    2.12045134
H    -0.75334432   -1.52661810    1.42571054
H    -1.26400326    0.00311631    2.10681857
H     1.28942741    1.41892479   -1.11990788
H     1.16982698    0.01622497   -2.16054236
H    -0.93960789    1.65274898   -1.14111290
H    -1.11566376    0.24513057   -2.14908030
H    -2.38518638    0.45880114    0.15455571
H    -1.87646321   -1.08644649   -0.46330415
H     1.17729165   -1.48979320   -0.22866295
18
0 1 0.017777
C    -0.74268682   -0.44264601    1.25510186
C     0.72196280   -0.00003049    1.25500241
C     1.38330802   -0.42411356   -0.05279841
C     0.83519682    0.42414405   -1.20220400
C    -0.70732174    0.59813517   -1.18034695
C    -1.49045907   -0.15548916   -0.07475491
H     2.47215411   -0.31630685   -0.00351432
H     0.79367634    1.09210259    1.35392393
H     1.23590861   -0.43082108    2.12098666
H    -0.76070461   -1.52364914    1.43815166
H    -1.27007870    0.01588939    2.09790337
H     1.29838160    1.41547572   -1.13069655
H     1.16010408    0.00665980   -2.16077813
H    -0.92868388    1.66707392   -1.09371875
H    -1.12278155    0.29435337   -2.14679545
H    -2.40117637    0.41526841    0.13431295
H    -1.83555743   -1.11037390   -0.48491984
H     1.17713957   -1.48914556   -0.22852650
18
0 1 0.017179
C    -0.74632975   -0.44186593    1.25399959
C     0.71938962   -0.00072098    1.25529874
C     1.38246978   -0.42339097   -0.05212103
C     0.83498912    0.42411195   -1.20317771
C    -0.70563934    0.61235685   -1.16970170
C    -1.48487943   -0.17049092   -0.08429790
H     2.47122284   -0.31544034   -0.00138647
H     0.79131088    1.09127389    1.35518523
H     1.23250117   -0.43196168    2.12151004
H    -0.76865862   -1.52037294    1.45052331
H    -1.27649244    0.02903923    2.08822368
H     1.30703267    1.41189421   -1.14193449
H     1.14954924   -0.00301883   -2.16097300
H    -0.91775784    1.67972111   -1.04615133
H    -1.12932129    0.34318039   -2.14292023
H    -2.41541803    0.37172768    0.11365662
H    -1.79395048   -1.13275631   -0.50626034
H     1.17712628   -1.48846090   -0.22841198
18
0 1 0.016517
C    -0.75015346   -0.44100247    1.25265130
C     0.71672893   -0.00146979    1.25560694
C     1.38164021   -0.42261258   -0.05145367
C     0.83454419    0.42408237   -1.20415326
C    -0.70391291    0.62623752   -1.15867757
C    -1.47884696   -0.18523505   -0.09397373
H     2.47025025   -0.31435147    0.00075794
H     0.78897972    1.09036960    1.35661741
H     1.22894070   -0.43332516    2.12201262
H    -0.77722635   -1.51679894    1.46278723
H    -1.28327183    0.04251942    2.07776277
H     1.31533490    1.40819564   -1.15357560
H     1.13817072   -0.01279792   -2.16111576
H    -0.90688682    1.69069305   -0.99840828
H    -1.13536384    0.39162574   -2.13750226
H    -2.42800505    0.32818399    0.09253122
H    -1.75166622   -1.15359838   -0.52733725
H     1.17730510   -1.48775080   -0.22830091
18
0 1 0.015809
C    -0.75413510   -0.44004881    1.25104339
C     0.71398802   -0.00228276    1.25592869
C     1.38080001   -0.42176649   -0.05080924
C     0.83383289    0.42404925   -1.20511944
C    -0.70213342    0.63976140   -1.14729015
C    -1.47235240   -0.19971260   -0.10375324
H     2.46926087   -0.31304166    0.00290284
H     0.78667275    1.08937025    1.35822338
H     1.22520217   -0.43490292    2.12249964
H    -0.78637290   -1.51289381    1.47491895
H    -1.29039390    0.05632743    2.06647045
H     1.32329536    1.40437252   -1.16561201
H     1.12593149   -0.02263236   -2.16119134
H    -0.89609574    1.70002432   -0.95065831
H    -1.14092621    0.43967487   -2.13059883
H    -2.43895591    0.28465004    0.07096080
H    -1.70887596   -1.17287447   -0.54810141
H     1.17765413   -1.48700306   -0.22819768
18
0 1 0.015070
C    -0.75825604   -0.43901462    1.24918020
C     0.71117891   -0.00315303    1.25627072
C     1.37995905   -0.42086278   -0.05018643
C     0.83286481    0.42401581   -1.20608430
C    -0.70030605    0.65293914   -1.13556824
C    -1.46544067   -0.21392452   -0.11361195
H     2.46823838   -0.31150459    0.00503086
H     0.78439168    1.08828305    1.36000609
H     1.22133899   -0.43669340    2.12295345
H    -0.79605617   -1.50867917    1.48692054
H    -1.29783298    0.07043917    2.05437369
H     1.33088200    1.40040179   -1.17803147
H     1.11280898   -0.03250755   -2.16118777
H    -0.88530103    1.70776437   -0.90294809
H    -1.14596373    0.48724101   -2.12225167
H    -2.44827884    0.24120931    0.04909295
H    -1.66558306   -1.19070757   -0.56842046
H     1.17816668   -1.48622337   -0.22810989
18
0 1 0.014319
C    -0.76248618   -0.43789837    1.24706923
C     0.70831462   -0.00408105    1.25661728
C     1.37911352   -0.41990893   -0.04959520
C     0.83163556    0.42398998   -1.20702209
C    -0.69845195    0.66578746   -1.12352442
C    -1.45812557   -0.22788908   -0.12354480
H     2.46720116   -0.30973182    0.00713285
H     0.78216038    1.08710466    1.36195109
H     1.21733309   -0.43872137    2.12336989
H    -0.80626147   -1.50412675    1.49875447
H    -1.30555693    0.08483644    2.04140618
H     1.33809539    1.39627266   -1.19082360
H     1.09877199   -0.04242847   -2.16109574
H    -0.87441281    1.71396721   -0.85536349
H    -1.15041635    0.53424821   -2.11253790
H    -2.45598713    0.19791189    0.02705055
H    -1.62184116   -1.20711769   -0.58816484
H     1.17887683   -1.48540598   -0.22804845
18
0 1 0.013572
C    -0.76682062   -0.43669938    1.24469716
C     0.70541092   -0.00506782    1.25698084
C     1.37828661   -0.41888869   -0.04904248
C     0.83012869    0.42395651   -1.20793836
C    -0.69658072    0.67830808   -1.11118169
C    -1.45042489   -0.24160869   -0.13351547
H     2.46613164   -0.30767590    0.00919415
H     0.77998920    1.08581897    1.36408548
H     1.21321890   -0.44100129    2.12373241
H    -0.81695563   -1.49922697    1.51043279
H    -1.31353769    0.09951819    2.02758475
H     1.34489021    1.39197804   -1.20397172
H     1.08379013   -0.05238209   -2.16087636
H    -0.86343223    1.71864879   -0.80802231
H    -1.15429525    0.58072662   -2.10151667
H    -2.46213702    0.15472122    0.00491261
H    -1.57776942   -1.22213766   -0.60725163
H     1.17980796   -1.48456290   -0.22800049
18
0 1 0.012848
C    -0.77125312   -0.43541871    1.24207873
C     0.70246817   -0.00611357    1.25735046
C     1.37747529   -0.41779755   -0.04851789
C     0.82834759    0.42391112   -1.20883257
C    -0.69466845    0.69046992   -1.09857219
C    -1.44236948   -0.25505121   -0.14350654
H     2.46505882   -0.30530321    0.01122474
H     0.77791588    1.08444634    1.36642000
H     1.20896426   -0.44356615    2.12405018
H    -0.82812965   -1.49393407    1.52193843
H    -1.32172322    0.11446792    2.01287462
H     1.35128458    1.38749203   -1.21748514
H     1.06790261   -0.06234669   -2.16051530
H    -0.85247040    1.72186804   -0.76101777
H    -1.15770152    0.62668411   -2.08921195
H    -2.46680764    0.11166786   -0.01742458
H    -1.53347731   -1.23575167   -0.62575493
H     1.18097783   -1.48367324   -0.22796357
18
0 1 0.012163
C    -0.77577829   -0.43404436    1.23921562
C     0.69947466   -0.00723444    1.25774285
C     1.37668807   -0.41662432   -0.04802768
C     0.82629934    0.42385876   -1.20971517
C    -0.69271872    0.70228440   -1.08572699
C    -1.43396506   -0.26824004   -0.15348863
H     2.46397630   -0.30257420    0.01323264
H     0.77595042    1.08294768    1.36900106
H     1.20456684   -0.44644724    2.12429941
H    -0.83976509   -1.48827219    1.53326136
H    -1.33008865    0.12963426    1.99732389
H     1.35725592    1.38280410   -1.23133179
H     1.05116072   -0.07229916   -2.15997229
H    -0.84149184    1.72363135   -0.71435188
H    -1.16071590    0.67209590   -2.07563967
H    -2.47000571    0.06879199   -0.04000455
H    -1.48898310   -1.24800482   -0.64362876
H     1.18246916   -1.48275532   -0.22791450
18
0 1 0.011535
C    -0.78038888   -0.43255714    1.23609823
C     0.69649063   -0.00844697    1.25815896
C     1.37597573   -0.41533366   -0.04756168
C     0.82394974    0.42378063   -1.21059728
C    -0.69077942    0.71374124   -1.07265958
C    -1.42524779   -0.28118410   -0.16343866
H     2.46290893   -0.29925770    0.01519321
H     0.77424226    1.08126839    1.37201780
H     1.20005860   -0.44981621    2.12444173
H    -0.85185023   -1.48217792    1.54443757
H    -1.33856388    0.14505356    1.98092605
H     1.36278039    1.37788781   -1.24560131
H     1.03351709   -0.08229333   -2.15925220
H    -0.83046263    1.72400500   -0.66818079
H    -1.16340255    0.71682727   -2.06081376
H    -2.47177698    0.02616768   -0.06275351
H    -1.44440185   -1.25899143   -0.66071585
H     1.18454391   -1.48179583   -0.22786197
18
0 1 0.010982
C    -0.78505980   -0.43092960    1.23276587
C     0.69353011   -0.00979280    1.25864538
C     1.37539748   -0.41384525   -0.04713036
C     0.82126172    0.42363804   -1.21151502
C    -0.68888518    0.72483249   -1.05940368
C    -1.41624434   -0.29390288   -0.17336220
H     2.46190114   -0.29510104    0.01716989
H     0.77287203    1.07934652    1.37565033
H     1.19542480   -0.45384075    2.12446030
H    -0.86445464   -1.47559148    1.55556037
H    -1.34706929    0.16083228    1.96365261
H     1.36780269    1.37270358   -1.26044111
H     1.01492516   -0.09245088   -2.15828092
H    -0.81934876    1.72305477   -0.62266515
H    -1.16577765    0.76070061   -2.04482083
H    -2.47213522   -0.01610960   -0.08557632
H    -1.39983603   -1.26879373   -0.67689928
H     1.18744903   -1.48074214   -0.22775802
18
0 1 0.010521
C    -0.78984398   -0.42910808    1.22923554
C     0.69059629   -0.01133210    1.25921268
C     1.37499667   -0.41207800   -0.04670222
C     0.81824688    0.42341010   -1.21251046
C    -0.68701792    0.73549829   -1.04601634
C    -1.40697794   -0.30639020   -0.18321921
H     2.46096459   -0.28989285    0.01918898
H     0.77188058    1.07712802    1.37999909
H     1.19065748   -0.45868747    2.12431188
H    -0.87767118   -1.46842624    1.56668666
H    -1.35558659    0.17702306    1.94549952
H     1.37229076    1.36722176   -1.27598287
H     0.99541571   -0.10285172   -2.15705386
H    -0.80813155    1.72079411   -0.57785614
H    -1.16792893    0.80358490   -2.02772779
H    -2.47110492   -0.05795385   -0.10851873
H    -1.35529561   -1.27747102   -0.69212608
H     1.19134002   -1.47954003   -0.22760264
18
0 1 0.010171
C    -0.79475077   -0.42703695    1.22555169
C     0.68771874   -0.01313980    1.25992822
C     1.37490533   -0.40987483   -0.04626333
C     0.81487584    0.42301463   -1.21366490
C    -0.68524161    0.74567637   -1.03259572
C    -1.39750753   -0.31863942   -0.19295596
H     2.46018001   -0.28309803    0.02135000
H     0.77140562    1.07446383    1.38542231
H     1.18576060   -0.46469610    2.12394850
H    -0.89169655   -1.46050776    1.57799182
H    -1.36404023    0.19391572    1.92636516
H     1.37615987    1.36132089   -1.29259934
H     0.97481874   -0.11376995   -2.15551683
H    -0.79702429    1.71733769   -0.53415146
H    -1.16998813    0.84530031   -2.00963326
H    -2.46877987   -0.09930255   -0.13155386
H    -1.31114767   -1.28509070   -0.70635142
H     1.19675349   -1.47810440   -0.22735357
18
0 1 0.009944
C    -0.79982313   -0.42455175    1.22180547
C     0.68497291   -0.01541627    1.26091092
C     1.37534699   -0.40692391   -0.04577414
C     0.81106925    0.42234018   -1.21513678
C    -0.68363116    0.75517000   -1.01934599
C    -1.38793486   -0.33061825   -0.20245948
H     2.45968354   -0.27370378    0.02380805
H     0.77171732    1.07105505    1.39256920
H     1.18072473   -0.47259232    2.12322703
H    -0.90685770   -1.45157858    1.58970994
H    -1.37226183    0.21187138    1.90623226
H     1.37918920    1.35490105   -1.31087349
H     0.95307089   -0.12567993   -2.15358331
H    -0.78611603    1.71263885   -0.49190168
H    -1.17211579    0.88541923   -1.99080270
H    -2.46528425   -0.14002536   -0.15455039
H    -1.26757554   -1.29175532   -0.71934848
H     1.20463754   -1.47617865   -0.22697494
18
0 1 0.009853
C    -0.80519439   -0.42127028    1.21825686
C     0.68249026   -0.01864039    1.26244573
C     1.37693837   -0.40236835   -0.04509818
C     0.80670291    0.42100874   -1.21734755
C    -0.68237428    0.76345455   -1.00686005
C    -1.37856287   -0.34218427   -0.21139682
H     2.45980482   -0.25913043    0.02705604
H     0.77339406    1.06620275    1.40314889
H     1.17558027   -0.48407250    2.12184995
H    -0.92409971   -1.44092577    1.60247969
H    -1.37981994    0.23187267    1.88514143
H     1.38080949    1.34764944   -1.33237508
H     0.93009017   -0.13979438   -2.15104669
H    -0.77547625    1.70671112   -0.45250180
H    -1.17460616    0.92250416   -1.97200717
H    -2.46088759   -0.17941962   -0.17701535
H    -1.22537555   -1.29773849   -0.73022348
H     1.21742385   -1.47318428   -0.22636574
18
0 1 0.009856
C    -0.80698835   -0.41522144    1.21910506
C     0.68502816   -0.02583864    1.26284825
C     1.37530678   -0.40382476   -0.04864534
C     0.80685275    0.42966340   -1.21420291
C    -0.68499201    0.76246490   -1.00674483
C    -1.37520733   -0.34724346   -0.21236023
H     2.45872546   -0.26460939    0.02297245
H     0.78564631    1.05695787    1.41199259
H     1.17618975   -0.50226143    2.11724421
H    -0.93811617   -1.42824991    1.61578968
H    -1.37731254    0.25230980    1.87492563
H     1.37728082    1.35984877   -1.31572583
H     0.93759879   -0.11985421   -2.15320434
H    -0.78524200    1.70427390   -0.45192171
H    -1.17636202    0.91897620   -1.97228905
H    -2.45869070   -0.19403874   -0.18257769
H    -1.21144447   -1.30295947   -0.72666171
H     1.21227147   -1.47271864   -0.23730515
18
0 1 0.009923
C    -0.80865787   -0.40183320    1.22253591
C     0.69176240   -0.03954462    1.26289072
C     1.37089343   -0.40925887   -0.05679034
C     0.80865258    0.44880348   -1.20610038
C    -0.69171856    0.75704583   -1.01145663
C    -1.37093198   -0.35521263   -0.21107928
H     2.45631781   -0.28411420    0.01190264
H     0.81201456    1.03970603    1.42543829
H     1.17967392   -0.53547755    2.10828204
H    -0.96312984   -1.40267366    1.64255631
H    -1.36891891    0.29305468    1.85946883
H     1.36886128    1.38925255   -1.27006228
H     0.96332008   -0.07104835   -2.15888664
H    -0.81173551    1.70174102   -0.46475787
H    -1.17973266    0.89744301   -1.98144406
H    -2.45635100   -0.21452766   -0.18675216
H    -1.19398177   -1.31412460   -0.71503509
H     1.19411338   -1.47309344   -0.26122412
18
0 1 0.010046
C    -0.80901676   -0.38772570    1.22635179
C     0.69933105   -0.05402312    1.26336853
C     1.36779709   -0.41247141   -0.06483294
C     0.80907521    0.46649453   -1.19853559
C    -0.69929267    0.74960610   -1.01835854
C    -1.36789391   -0.36188040   -0.20799325
H     2.45455721   -0.29704047    0.00059101
H     0.84031061    1.02011145    1.44271051
H     1.18309394   -0.57220032    2.09777889
H    -0.98661690   -1.37487141    1.66879220
H    -1.35732933    0.33329070    1.84437782
H     1.35732776    1.41570116   -1.22793879
H     0.98683696   -0.02513198   -2.16209061
H    -0.84040514    1.69921763   -0.48536798
H    -1.18289964    0.86852274   -1.99343532
H    -2.45461697   -0.23068251   -0.18658854
H    -1.18183830   -1.32467384   -0.70088425
H     1.18158928   -1.47159106   -0.28418626
18
0 1 0.010217
C    -0.80875033   -0.37325528    1.23017647
C     0.70706332   -0.06886613    1.26389450
C     1.36539965   -0.41456851   -0.07273950
C     0.80879963    0.48343464   -1.19115500
C    -0.70702267    0.74122077   -1.02600861
C    -1.36548960   -0.36796549   -0.20416785
H     2.45317137   -0.30656540   -0.01054652
H     0.86916021    0.99909171    1.46139117
H     1.18587539   -0.61041114    2.08626677
H    -1.00909111   -1.34566602    1.69470807
H    -1.34408462    0.37314451    1.82916632
H     1.34410378    1.44047110   -1.18746219
H     1.00900076    0.01955625   -2.16388103
H    -0.86921965    1.69586394   -0.50820493
H    -1.18564767    0.83713116   -2.00610163
H    -2.45322798   -0.24461377   -0.18453848
H    -1.17231563   -1.33498696   -0.68566429
H     1.17197713   -1.46916558   -0.30658205
18
0 1 0.010424
C    -0.80777252   -0.35859064    1.23401307
C     0.71488351   -0.08390454    1.26442054
C     1.36350670   -0.41573753   -0.08048118
C     0.80783748    0.49964208   -1.18393936
C    -0.71483487    0.73198582   -1.03439081
C    -1.36362030   -0.37339519   -0.19962226
H     2.45207374   -0.31338009   -0.02155017
H     0.89835669    0.97681036    1.48112610
H     1.18795427   -0.64964343    2.07375539
H    -1.03002206   -1.31553081    1.71992578
H    -1.32934773    0.41200633    1.81425061
H     1.32934156    1.46362747   -1.14852150
H     1.02991590    0.06314467   -2.16440506
H    -0.89834468    1.69194721   -0.53387696
H    -1.18778560    0.80303969   -2.01938710
H    -2.45214570   -0.25644981   -0.18073055
H    -1.16505285   -1.34489046   -0.66952440
H     1.16458678   -1.46599985   -0.32830736
18
0 1 0.010654
C    -0.80612666   -0.34383409    1.23780825
C     0.72271584   -0.09903522    1.26491983
C     1.36198244   -0.41615664   -0.08806257
C     0.80620611    0.51519186   -1.17685726
C    -0.72265772    0.72208388   -1.04328421
C    -1.36212001   -0.37824980   -0.19452404
H     2.45118526   -0.31808817   -0.03246972
H     0.92776254    0.95326992    1.50186557
H     1.18922682   -0.68961010    2.06023344
H    -1.04934524   -1.28465350    1.74444627
H    -1.31326013    0.44985186    1.79945419
H     1.31323402    1.48530896   -1.11091094
H     1.04948277    0.10580480   -2.16386778
H    -0.92763426    1.68749622   -0.56212772
H    -1.18918142    0.76671059   -2.03291188
H    -2.45127508   -0.26669493   -0.17556547
H    -1.15938020   -1.35434221   -0.65272673
H     1.15879226   -1.46223919   -0.34935840
18
0 1 0.010892
C    -0.80401588   -0.32898119    1.24144605
C     0.73036680   -0.11423023    1.26520373
C     1.36071453   -0.41613071   -0.09554087
C     0.80409749    0.53036094   -1.16966286
C    -0.73029112    0.71168709   -1.05235460
C    -1.36087182   -0.38270590   -0.18909145
H     2.45043517   -0.32139491   -0.04320242
H     0.95669263    0.92881973    1.52238272
H     1.18958577   -0.72948833    2.04594893
H    -1.06754023   -1.25283759    1.76850054
H    -1.29598066    0.48705604    1.78424384
H     1.29599053    1.50578839   -1.07368825
H     1.06787502    0.14833597   -2.16225791
H    -0.95658466    1.68223477   -0.59173356
H    -1.18959323    0.72907592   -2.04621826
H    -2.45055429   -0.27575978   -0.16959590
H    -1.15477326   -1.36344594   -0.63552564
H     1.15408748   -1.45805818   -0.37004623
18
0 1 0.011126
C    -0.80142569   -0.31402591    1.24490365
C     0.73779083   -0.12949689    1.26527959
C     1.35967610   -0.41566551   -0.10290907
C     0.80149602    0.54516240   -1.16237052
C    -0.73771346    0.70085198   -1.06150361
C    -1.35982379   -0.38682607   -0.18340004
H     2.44982594   -0.32341935   -0.05373348
H     0.98518150    0.90341100    1.54277738
H     1.18900995   -0.76928418    2.03087436
H    -1.08459877   -1.22004432    1.79214142
H    -1.27758600    0.52367021    1.76849666
H     1.27768474    1.52510070   -1.03709246
H     1.08484331    0.19049875   -2.15960828
H    -0.98523205    1.67612762   -0.62255269
H    -1.18890442    0.69019241   -2.05917830
H    -2.44992958   -0.28387457   -0.16295167
H    -1.15098579   -1.37220199   -0.61799055
H     1.15035829   -1.45345763   -0.39040949
18
0 1 0.011345
C    -0.79835707   -0.29899007    1.24813905
C     0.74497185   -0.14481013    1.26515228
C     1.35882467   -0.41478062   -0.11015915
C     0.79843301    0.55959076   -1.15499312
C    -0.74490727    0.68961204   -1.07067089
C    -1.35896519   -0.39062197   -0.17746816
H     2.44930273   -0.32433086   -0.06407366
H     1.01338512    0.87689152    1.56338333
H     1.18729636   -0.80912660    2.01493317
H    -1.10030962   -1.18644197    1.81520060
H    -1.25824360    0.55947101    1.75238143
H     1.25836191    1.54322304   -1.00106062
H     1.10042782    0.23234200   -2.15602072
H    -1.01349055    1.66910063   -0.65441914
H    -1.18709292    0.65031651   -2.07168605
H    -2.44941910   -0.29107958   -0.15573368
H    -1.14796614   -1.38063066   -0.60017998
H     1.14739916   -1.44846926   -0.41040526
18
0 1 0.01154
C    -0.79481031   -0.28390737    1.25115609
C     0.75189265   -0.16013210    1.26477771
C     1.35812881   -0.41357698   -0.11730992
C     0.79489630    0.57370908   -1.14746778
C    -0.75182386    0.67801796   -1.07979951
C    -1.35828359   -0.39411059   -0.17135658
H     2.44888492   -0.32435486   -0.07427099
H     1.04125371    0.84927697    1.58405236
H     1.18433423   -0.84889661    1.99812114
H    -1.11457154   -1.15219197    1.83762877
H    -1.23798602    0.59436126    1.73597523
H     1.23803529    1.56025385   -0.96523736
H     1.11481721    0.27426002   -2.15153250
H    -1.04128450    1.66112618   -0.68710455
H    -1.18415477    0.60982169   -2.08359512
H    -2.44900146   -0.29743947   -0.14798495
H    -1.14562394   -1.38870624   -0.58215086
H     1.14506010   -1.44315142   -0.43008138
18
0 1 0.011701
C    -0.79084760   -0.26876007    1.25388145
C     0.75852374   -0.17546470    1.26411719
C     1.35758966   -0.41212297   -0.12440299
C     0.79092843    0.58758767   -1.13971420
C    -0.75842994    0.66611542   -1.08878234
C    -1.35776429   -0.39735535   -0.16509911
H     2.44854782   -0.32361035   -0.08431618
H     1.06845469    0.82073857    1.60436128
H     1.18011431   -0.88834476    1.98059027
H    -1.12753686   -1.11716235    1.85954159
H    -1.21677255    0.62854782    1.71901754
H     1.21672015    1.57625455   -0.92945270
H     1.12802374    0.31641244   -2.14610850
H    -1.06844723    1.65215262   -0.72025150
H    -1.18002430    0.56903504   -2.09479924
H    -2.44868662   -0.30308142   -0.13987249
H    -1.14387092   -1.39647312   -0.56398520
H     1.14325959   -1.43752614   -0.44956539
18
0 1 0.011821
C    -0.78647498   -0.25351106    1.25629207
C     0.76482208   -0.19084139    1.26316185
C     1.35722103   -0.41035654   -0.13139095
C     0.78655338    0.60119793   -1.13177090
C    -0.76472075    0.65391889   -1.09757422
C    -1.35740076   -0.40040783   -0.15871785
H     2.44832683   -0.32205971   -0.09413731
H     1.09489313    0.79128014    1.62430954
H     1.17462028   -0.92745338    1.96234148
H    -1.13933389   -1.08116203    1.88100916
H    -1.19455952    0.66217731    1.70129377
H     1.19448715    1.59126054   -0.89404109
H     1.13985461    0.35841113   -2.13977181
H    -1.09487580    1.64218158   -0.75362698
H    -1.17468747    0.52809301   -2.10527869
H    -2.44846318   -0.30810216   -0.13142804
H    -1.14262407   -1.40399591   -0.54566739
H     1.14205291   -1.43156921   -0.46886223
18
0 1 0.011895
C    -0.78165591   -0.23824509    1.25845640
C     0.77078013   -0.20619209    1.26192231
C     1.35702544   -0.40833646   -0.13826614
C     0.78173256    0.61452855   -1.12365617
C    -0.77067639    0.64135915   -1.10632125
C    -1.35720582   -0.40311406   -0.15213514
H     2.44820697   -0.31971309   -0.10368559
H     1.12053237    0.76106589    1.64376054
H     1.16808517   -0.96584011    1.94354474
H    -1.14980495   -1.04463475    1.90180033
H    -1.17136011    0.69494150    1.68338302
H     1.17134318    1.60526136   -0.85922475
H     1.15021591    0.40008237   -2.13256577
H    -1.12061785    1.63129203   -0.78802109
H    -1.16791406    0.48640290   -2.11511471
H    -2.44835555   -0.31230876   -0.12253101
H    -1.14198948   -1.41111879   -0.52712962
H     1.14141341   -1.42529153   -0.48796687
18
0 1 0.011919
C    -0.77629697   -0.22289734    1.26018597
C     0.77613760   -0.22152496    1.26025810
C     1.35707524   -0.40589094   -0.14495571
C     0.77637715    0.62741590   -1.11530238
C    -0.77604933    0.62839312   -1.11478680
C    -1.35724370   -0.40549578   -0.14539917
H     2.44825567   -0.31630033   -0.11280896
H     1.14497890    0.72945326    1.66275174
H     1.15958433   -1.00348091    1.92361118
H    -1.15853591   -1.00693100    1.92176300
H    -1.14682973    0.72660735    1.66459040
H     1.14683371    1.61778908   -0.82491604
H     1.15877965    0.44164922   -2.12414634
H    -1.14505093    1.61888379   -0.82293339
H    -1.15927531    0.44442243   -2.12364509
H    -2.44839426   -0.31553851   -0.11329136
H    -1.14213640   -1.41784073   -0.50834159
H     1.14160669   -1.41855242   -0.50673943
18
0 1 0.011896
C    -0.77096189   -0.20756969    1.26189159
C     0.78151358   -0.23688069    1.25857092
C     1.35710435   -0.40344419   -0.15165238
C     0.77104048    0.64032487   -1.10691854
C    -0.78143642    0.61544861   -1.12321617
C    -1.35726009   -0.40787892   -0.13867542
H     2.44826871   -0.31288722   -0.12194188
H     1.16956482    0.69783893    1.68165888
H     1.15106663   -1.04118744    1.90370730
H    -1.16724002   -0.96928739    1.94175318
H    -1.12243135    0.75827157    1.64571573
H     1.12246245    1.63030191   -0.79046981
H     1.16732693    0.48328287   -2.11576454
H    -1.16962468    1.60646105   -0.85770601
H    -1.15061669    0.40251389   -2.13221301
H    -2.44840391   -0.31875876   -0.10405930
H    -1.14220250   -1.42455540   -0.48958930
H     1.14170698   -1.41180168   -0.52554798
18
0 1 0.011824
C    -0.76508193   -0.19218841    1.26315228
C     0.78634277   -0.25217650    1.25639529
C     1.35732746   -0.40071053   -0.15824216
C     0.76515061    0.65288703   -1.09815313
C    -0.78621662    0.60211513   -1.13132795
C    -1.35752229   -0.40992672   -0.13182434
H     2.44842057   -0.30869808   -0.13080528
H     1.19273133    0.66522210    1.69946602
H     1.14077939   -1.07778599    1.88288583
H    -1.17394540   -0.93086058    1.96070440
H    -1.09682816    0.78860548    1.62636292
H     1.09675604    1.64132420   -0.75619595
H     1.17412371    0.52499493   -2.10598773
H    -1.19275194    1.59243436   -0.89244400
H    -1.14024745    0.36091632   -2.13944572
H    -2.44857329   -0.32091885   -0.09447580
H    -1.14314706   -1.43091507   -0.47049070
H     1.14241876   -1.40463928   -0.54419582
18
0 1 0.011708
C    -0.75887002   -0.17680391    1.26410629
C     0.79070852   -0.26742383    1.25395384
C     1.35770596   -0.39772693   -0.16467395
C     0.75894563    0.66515076   -1.08927989
C    -0.79056888    0.58851030   -1.13923440
C    -1.35792121   -0.41170638   -0.12487188
H     2.44865533   -0.30374587   -0.13924686
H     1.21498492    0.63175574    1.71697256
H     1.12899174   -1.11386271    1.86145296
H    -1.17941454   -0.89189054    1.97902066
H    -1.07049942    0.81808944    1.60652867
H     1.07036820    1.65135822   -0.72231283
H     1.17972883    0.56636464   -2.09549011
H    -1.21498877    1.57741739   -0.92747673
H    -1.12858961    0.31920510   -2.14579551
H    -2.44881560   -0.32239454   -0.08476564
H    -1.14449863   -1.43692410   -0.45120019
H     1.14370680   -1.39719904   -0.56261670
18
0 1 0.011551
C    -0.75231859   -0.16139379    1.26474349
C     0.79467183   -0.28264449    1.25125607
C     1.35826723   -0.39442620   -0.17092385
C     0.75235606    0.67707070   -1.08033222
C    -0.79454696    0.57468811   -1.14689149
C    -1.35842957   -0.41329432   -0.11785200
H     2.44900677   -0.29795557   -0.14731606
H     1.23636470    0.59736915    1.73427955
H     1.11588532   -1.14926510    1.83944055
H    -1.18374313   -0.85220578    1.99678007
H    -1.04327972    0.84692205    1.58593030
H     1.04329547    1.66037676   -0.68923196
H     1.18390263    0.60699041   -2.08433918
H    -1.23628182    1.56143927   -0.96255541
H    -1.11576144    0.27761439   -2.15121322
H    -2.44913034   -0.32333000   -0.07485130
H    -1.14622318   -1.44267720   -0.43174936
H     1.14562468   -1.38941446   -0.58078633
18
0 1 0.011359
C    -0.74542336   -0.14606434    1.26515000
C     0.79822114   -0.29774116    1.24827197
C     1.35895248   -0.39093124   -0.17704349
C     0.74545660    0.68867241   -1.07122848
C    -0.79810592    0.56057438   -1.15445196
C    -1.35910094   -0.41451004   -0.11069804
H     2.44942794   -0.29158059   -0.15505663
H     1.25677892    0.56237528    1.75092911
H     1.10167133   -1.18360425    1.81704910
H    -1.18676036   -0.81250305    2.01362969
H    -1.01554316    0.87458160    1.56533956
H     1.01558128    1.66838292   -0.65656192
H     1.18695063    0.64739890   -2.07248955
H    -1.25669537    1.54449823   -0.99842232
H    -1.10142061    0.23553348   -2.15577189
H    -2.44953371   -0.32333550   -0.06468793
H    -1.14855096   -1.44802722   -0.41206496
H     1.14796943   -1.38136705   -0.59874481
18
0 1 0.01114
C    -0.73827667   -0.13082605    1.26537062
C     0.80132872   -0.31271554    1.24504855
C     1.35975599   -0.38722879   -0.18300282
C     0.73832551    0.69994432   -1.06204573
C    -0.80116871    0.54611007   -1.16196441
C    -1.35996483   -0.41528402   -0.10340621
H     2.44989817   -0.28464540   -0.16236951
H     1.27617021    0.52685672    1.76685311
H     1.08623659   -1.21699420    1.79422255
H    -1.18858176   -0.77293474    2.02953580
H    -0.98752380    0.90100198    1.54507203
H     0.98733764    1.67545326   -0.62454811
H     1.18894861    0.68739593   -2.05998197
H    -1.27614455    1.52641463   -1.03511946
H    -1.08556456    0.19301166   -2.15943749
H    -2.45005597   -0.32223797   -0.05429473
H    -1.15162136   -1.45293824   -0.39202328
H     1.15072065   -1.37305067   -0.61649516
18
0 1 0.010905
C    -0.73086275   -0.11558609    1.26532817
C     0.80400277   -0.32765241    1.24162581
C     1.36073046   -0.38319376   -0.18874683
C     0.73091468    0.71084618   -1.05287898
C    -0.80379609    0.53134309   -1.16928628
C    -1.36098906   -0.41575700   -0.09604189
H     2.45046660   -0.27681698   -0.16918118
H     1.29456415    0.49059411    1.78235841
H     1.06945189   -1.24972574    1.77077191
H    -1.18937522   -0.73311236    2.04469990
H    -0.95898214    0.92654648    1.52452921
H     0.95857957    1.68166314   -0.59352586
H     1.18977671    0.72650420   -2.04698153
H    -1.29451946    1.50720217   -1.07183255
H    -1.06862064    0.15075711   -2.16213129
H    -2.45065635   -0.32022515   -0.04374028
H    -1.15533411   -1.45754833   -0.37167868
H     1.15418108   -1.36436233   -0.63404212
18
0 1 0.010664
C    -0.72320866   -0.10033824    1.26499343
C     0.80619428   -0.34255036    1.23801619
C     1.36193002   -0.37876614   -0.19419284
C     0.72324933    0.72131651   -1.04382335
C    -0.80599665    0.51627887   -1.17639597
C    -1.36216833   -0.41594063   -0.08859746
H     2.45116004   -0.26788056   -0.17530614
H     1.31193429    0.45342728    1.79767253
H     1.05127668   -1.28176807    1.74667604
H    -1.18916789   -0.69291960    2.05918098
H    -0.92988093    0.95131204    1.50348808
H     0.92958863    1.68696641   -0.56371973
H     1.18940839    0.76428472   -2.03367808
H    -1.31186186    1.48685964   -1.10852471
H    -1.05064414    0.10873089   -2.16380206
H    -2.45133389   -0.31732951   -0.03305990
H    -1.15964345   -1.46185120   -0.35102039
H     1.15859676   -1.35527112   -0.65129053
18
0 1 0.010431
C    -0.71545670   -0.08511756    1.26448920
C     0.80778223   -0.35739009    1.23426499
C     1.36342915   -0.37386388   -0.19923989
C     0.71547754    0.73125397   -1.03502510
C    -0.80764785    0.50077105   -1.18345320
C    -1.36358437   -0.41565348   -0.08103600
H     2.45202859   -0.25756513   -0.18038344
H     1.32812961    0.41520785    1.81296498
H     1.03167777   -1.31303855    1.72192245
H    -1.18803209   -0.65283212    2.07278292
H    -0.90060896    0.97501531    1.48268455
H     0.90064821    1.69155171   -0.53581314
H     1.18806268    0.80034406   -2.02031328
H    -1.32802778    1.46527792   -1.14592379
H    -1.03135637    0.06622701   -2.16441738
H    -2.45214187   -0.31309104   -0.02231148
H    -1.16489728   -1.46570500   -0.32988830
H     1.16432855   -1.34573687   -0.66812091
18
0 1 0.010221
C    -0.70770129   -0.07005593    1.26397911
C     0.80871639   -0.37206899    1.23044471
C     1.36530004   -0.36845049   -0.20375893
C     0.70770596    0.74051949   -1.02668577
C    -0.80863414    0.48459708   -1.19068054
C    -1.36538695   -0.41454116   -0.07329856
H     2.45311202   -0.24575549   -0.18415903
H     1.34296762    0.37611568    1.82817922
H     1.01069711   -1.34335190    1.69658526
H    -1.18599698   -0.61373664    2.08526192
H    -0.87160014    0.99731700    1.46311157
H     0.87165916    1.69554749   -0.51017624
H     1.18600115    0.83445008   -2.00712152
H    -1.34286177    1.44220885   -1.18492242
H    -1.01051113    0.02250650   -2.16390972
H    -2.45318534   -0.30663012   -0.01138909
H    -1.17183086   -1.46889501   -0.30809569
H     1.17158972   -1.33581648   -0.68433428
18
0 1 0.010046
C    -0.69998288   -0.05520899    1.26345146
C     0.80903313   -0.38653082    1.22660167
C     1.36763598   -0.36246510   -0.20766554
C     0.69997978    0.74899591   -1.01893614
C    -0.80896061    0.46773457   -1.19804759
C    -1.36770541   -0.41252558   -0.06540387
H     2.45446464   -0.23209047   -0.18640621
H     1.35637061    0.33636812    1.84326961
H     0.98837351   -1.37260222    1.67068955
H    -1.18325255   -0.57558670    2.09679386
H    -0.84280774    1.01837997    1.44451310
H     0.84261527    1.69890908   -0.48686897
H     1.18329867    0.86635179   -1.99434516
H    -1.35622038    1.41757417   -1.22530035
H    -0.98836872   -0.02213261   -2.16220209
H    -2.45451913   -0.29748545   -0.00026651
H    -1.18098703   -1.47133818   -0.28571926
H     1.18084310   -1.32553170   -0.69973741
18
0 1 0.00992
C    -0.69237212   -0.04062636    1.26291527
C     0.80871878   -0.40072372    1.22277541
C     1.37060952   -0.35583552   -0.21083901
C     0.69236254    0.75655924   -1.01193640
C    -0.80863332    0.45013611   -1.20553459
C    -1.37068540   -0.40950975   -0.05738068
H     2.45616322   -0.21607031   -0.18676611
H     1.36814067    0.29620524    1.85816494
H     0.96497569   -1.40057740    1.64448981
H    -1.17994610   -0.53831931    2.10748683
H    -0.81423336    1.03827036    1.42680880
H     0.81386926    1.70161752   -0.46621867
H     1.18000041    0.89547367   -1.98232555
H    -1.36795140    1.39129618   -1.26691057
H    -0.96505875   -0.06766876   -2.15913704
H    -2.45622078   -0.28517747    0.01102844
H    -1.19290384   -1.47296272   -0.26280247
H     1.19278748   -1.31493225   -0.71412003
18
0 1 0.009853
C    -0.68553065   -0.02674463    1.26274637
C     0.80710326   -0.41425378    1.21928920
C     1.37488053   -0.34786087   -0.21221428
C     0.68552934    0.76211464   -1.00707492
C    -0.80697993    0.43108878   -1.21352351
C    -1.37500255   -0.40434415   -0.04922286
H     2.45850310   -0.19553439   -0.18281604
H     1.37679848    0.25524420    1.87364914
H     0.93991056   -1.42639992    1.61769600
H    -1.17646406   -0.50426211    2.11665374
H    -0.78744294    1.05586176    1.41260031
H     0.78720622    1.70418429   -0.45298109
H     1.17650144    0.91740931   -1.97301867
H    -1.37664844    1.36207152   -1.31208806
H    -0.93959023   -0.11610394   -2.15361518
H    -2.45858720   -0.26635365    0.02219684
H    -1.21057716   -1.47280545   -0.23898288
H     1.21026028   -1.30374862   -0.72590570
18
0 1 0.009853
C    -0.68248531   -0.01561192    1.26249207
C     0.80519858   -0.41839523    1.21924112
C     1.37857103   -0.34267044   -0.21058606
C     0.68236188    0.76106568   -1.00865506
C    -0.80669834    0.41807338   -1.21836439
C    -1.37694784   -0.40246146   -0.04412768
H     2.46089262   -0.17980896   -0.17657440
H     1.37983071    0.23628721    1.88461074
H     0.92406259   -1.43715653    1.60585796
H    -1.17556986   -0.47897903    2.12299429
H    -0.77335487    1.06956671    1.40058781
H     0.77542854    1.70563801   -0.45652810
H     1.17461164    0.91786284   -1.97416988
H    -1.38081925    1.34441187   -1.33567616
H    -0.93003300   -0.14500874   -2.15070334
H    -2.45980797   -0.25902238    0.02768928
H    -1.21746572   -1.47371271   -0.22281910
H     1.22540373   -1.29944236   -0.72715355
18
0 1 0.009944
C    -0.68495166   -0.01274216    1.26094371
C     0.79981621   -0.42204651    1.22267804
C     1.38794404   -0.33101744   -0.20177758
C     0.68361514    0.75306395   -1.02090045
C    -0.81105620    0.41973674   -1.21604638
C    -1.37536752   -0.40699458   -0.04489733
H     2.46529165   -0.14027507   -0.15423708
H     1.37228362    0.21570970    1.90583280
H     0.90677962   -1.44833924    1.59264720
H    -1.18071595   -0.46805976    2.12422996
H    -0.77163532    1.07400626    1.39030307
H     0.78602705    1.71161310   -0.49542243
H     1.17210890    0.88135146   -1.99260368
H    -1.37921419    1.35206757   -1.31385835
H    -0.95297195   -0.13033331   -2.15329504
H    -2.45969737   -0.27357667    0.02441721
H    -1.20471123   -1.47663723   -0.22382470
H     1.26764023   -1.29321528   -0.71668314
18
0 1 0.010170
C    -0.68769401   -0.01080990    1.25995616
C     0.79474185   -0.42486352    1.22630677
C     1.39752099   -0.31895867   -0.19237843
C     0.68521641    0.74382219   -1.03392834
C    -0.81486330    0.42074510   -1.21446734
C    -1.37492194   -0.40993520   -0.04548882
H     2.46877819   -0.09944959   -0.13134587
H     1.36406914    0.19725258    1.92606257
H     0.89159768   -1.45773431    1.58053099
H    -1.18574019   -0.46072706    2.12481087
H    -0.77130824    1.07703067    1.38342572
H     0.79692421    1.71637232   -0.53720026
H     1.16997477    0.84175146   -2.01113084
H    -1.37619616    1.35886521   -1.29525791
H    -0.97471420   -0.11788155   -2.15529699
H    -2.46019537   -0.28296110    0.02190300
H    -1.19684007   -1.47849832   -0.22458357
H     1.31122300   -1.28631670   -0.70406603
18
0 1 0.010521
C    -0.69056255   -0.00931309    1.25923336
C     0.78983545   -0.42725069    1.22988407
C     1.40700093   -0.30663826   -0.18274239
C     0.68699392    0.73388895   -1.04714169
C    -0.81824154    0.42143368   -1.21320595
C    -1.37502621   -0.41212059   -0.04602742
H     2.47111312   -0.05802360   -0.10840273
H     1.35561456    0.17988319    1.94526789
H     0.87756271   -1.46607636    1.56885211
H    -1.19064530   -0.45524885    2.12505659
H    -0.77177412    1.07934526    1.37826812
H     0.80801162    1.71990860   -0.58046870
H     1.16792980    0.80052818   -2.02893707
H    -1.37233120    1.36509861   -1.27832312
H    -0.99530361   -0.10643772   -2.15687679
H    -2.46097412   -0.28976177    0.01969208
H    -1.19143420   -1.47989261   -0.22520134
H     1.35538898   -1.27848923   -0.69018157
18
0 1 0.010981
C    -0.69349914   -0.00807095    1.25865135
C     0.78505397   -0.42934987    1.23331713
C     1.41626877   -0.29410073   -0.17297791
C     0.68885280    0.72345060   -1.06033922
C    -0.82125610    0.42194852   -1.21211169
C    -1.37542030   -0.41387758   -0.04653966
H     2.47213673   -0.01612021   -0.08552816
H     1.34710461    0.16325651    1.96348912
H     0.86434176   -1.47362946    1.55739530
H    -1.19540915   -0.45089336    2.12509360
H    -0.77276331    1.08124022    1.37416872
H     0.81922707    1.72224216   -0.62486782
H     1.16578508    0.75809874   -2.04579176
H    -1.36783487    1.37091246   -1.26247088
H    -1.01482129   -0.09554371   -2.15814007
H    -2.46190945   -0.29498408    0.01761155
H    -1.18753609   -1.48103296   -0.22568691
H     1.39993066   -1.26962813   -0.67526378
18
0 1 0.011534
C    -0.69645844   -0.00698547    1.25817305
C     0.78037937   -0.43124286    1.23655400
C     1.42527058   -0.28132580   -0.16312456
C     0.69075076    0.71256866   -1.07342944
C    -0.82394551    0.42234094   -1.21111267
C    -1.37599677   -0.41535546   -0.04706038
H     2.47176866    0.02620909   -0.06274872
H     1.33859571    0.14707469    1.98080794
H     0.85174452   -1.48055561    1.54595950
H    -1.20003092   -0.44731066    2.12498231
H    -0.77411923    1.08286306    1.37077439
H     0.83032898    1.72327820   -0.67000697
H     1.16339651    0.71466084   -2.06157200
H    -1.36282876    1.37637299   -1.24735620
H    -1.03341367   -0.08494488   -2.15912974
H    -2.46292733   -0.29914326    0.01559733
H    -1.18463707   -1.48203944   -0.22610213
H     1.44450819   -1.25966787   -0.65935281
18
0 1 0.012163
C    -0.69944762   -0.00601562    1.25774857
C     0.77577247   -0.43296313    1.23958607
C     1.43398926   -0.26834151   -0.15323707
C     0.69269511    0.70130464   -1.08634900
C    -0.82629767    0.42265885   -1.21014775
C    -1.37671155   -0.41664323   -0.04760082
H     2.46999852    0.06887684   -0.04002448
H     1.33012495    0.13128070    1.99725244
H     0.83965755   -1.48695345    1.53449307
H    -1.20454810   -0.44435990    2.12473940
H    -0.77583343    1.08427555    1.36795777
H     0.84135913    1.72298355   -0.71583306
H     1.16071812    0.67031059   -2.07621623
H    -1.35730712    1.38153839   -1.23283084
H    -1.05105155   -0.07454420   -2.15989439
H    -2.46399439   -0.30246607    0.01356851
H    -1.18256875   -1.48296796   -0.22644451
H     1.48909328   -1.24854019   -0.64251267
18
0 1 0.012848
C    -0.70242455   -0.00511125    1.25735950
C     0.77124128   -0.43455053    1.24237926
C     1.44239316   -0.25511838   -0.14331439
C     0.69464287    0.68966890   -1.09906487
C    -0.82834816    0.42291412   -1.20919285
C    -1.37750460   -0.41780287   -0.04816665
H     2.46679232    0.11177506   -0.01746707
H     1.32176337    0.11578187    2.01283593
H     0.82802177   -1.49289365    1.52292892
H    -1.20894121   -0.44183411    2.12441744
H    -0.77780005    1.08554077    1.36555754
H     0.85233872    1.72131746   -0.76219767
H     1.15770672    0.62524976   -2.08964481
H    -1.35134251    1.38645518   -1.21875293
H    -1.06779772   -0.06421517   -2.16045508
H    -2.46507743   -0.30519489    0.01151635
H    -1.18107412   -1.48383726   -0.22673494
H     1.53359329   -1.23615199   -0.62486766
18
0 1 0.013572
C    -0.70537185   -0.00425312    1.25697747
C     0.76681501   -0.43601966    1.24493652
C     1.45044830   -0.24164626   -0.13337530
C     0.69654494    0.67766592   -1.11156122
C    -0.83012543    0.42314208   -1.20822902
C    -1.37831098   -0.41888896   -0.04874845
H     2.46212172    0.15484759    0.00485351
H     1.31357319    0.10054026    2.02756106
H     0.81684484   -1.49841203    1.51119049
H    -1.21318901   -0.43960367    2.12403312
H    -0.77987301    1.08670533    1.36338454
H     0.86330319    1.71819010   -0.80895577
H     1.15431037    0.57960314   -2.10182760
H    -1.34494998    1.39113483   -1.20503352
H    -1.08369192   -0.05391804   -2.16084279
H    -2.46615069   -0.30757015    0.00943919
H    -1.17990423   -1.48469162   -0.22699957
H     1.57788499   -1.22243095   -0.60656449
18
0 1 0.014318
C    -0.70828135   -0.00343374    1.25661999
C     0.76248595   -0.43737975    1.24724075
C     1.45814332   -0.22790754   -0.12343592
C     0.69842069    0.66528729   -1.12380484
C    -0.83163305    0.42333307   -1.20726527
C    -1.37913556   -0.41989933   -0.04935472
H     2.45597575    0.19804540    0.02699292
H     1.30559450    0.08558411    2.04140353
H     0.80615147   -1.50352036    1.49931704
H    -1.21730692   -0.43759200    2.12360777
H    -0.78202578    1.08780947    1.36140016
H     0.87428270    1.71359982   -0.85605441
H     1.15043792    0.53341300   -2.11275617
H    -1.33814911    1.39560897   -1.19169615
H    -1.09867256   -0.04368609   -2.16106229
H    -2.46721264   -0.30962531    0.00734734
H    -1.17897253   -1.48551062   -0.22724669
H     1.62195776   -1.20731442   -0.58764113
18
0 1 0.015069
C    -0.71114904   -0.00265169    1.25627672
C     0.75824826   -0.43863455    1.24930616
C     1.46546588   -0.21393012   -0.11353547
C     0.70028518    0.65256467   -1.13577069
C    -0.83286790    0.42350198   -1.20627613
C    -1.37998238   -0.42085029   -0.05000059
H     2.44825639    0.24135192    0.04905678
H     1.29786048    0.07096853    2.05437991
H     0.79594364   -1.50824116    1.48730521
H    -1.22131977   -0.43580898    2.12314242
H    -0.78427696    1.08883022    1.35957838
H     0.88518441    1.70747620   -0.90343588
H     1.14599096    0.48664371   -2.12238722
H    -1.33094339    1.39987262   -1.17874968
H    -1.11270546   -0.03351954   -2.16117711
H    -2.46825169   -0.31141371    0.00519477
H    -1.17826068   -1.48629492   -0.22747918
H     1.66570261   -1.19082828   -0.56803058
18
0 1 0.015808
C    -0.71395724   -0.00189924    1.25593637
C     0.75412715   -0.43978965    1.25112745
C     1.47237537   -0.19969975   -0.10370005
C     0.70211061    0.63948940   -1.14742740
C    -0.83382974    0.42364486   -1.20527649
C    -1.38082615   -0.42174562   -0.05065988
H     2.43892472    0.28478572    0.07093509
H     1.29042864    0.05665842    2.06649469
H     0.78625840   -1.51260393    1.47516043
H    -1.22518170   -0.43421734    2.12264962
H    -0.78655384    1.08978957    1.35790156
H     0.89597332    1.69980358   -0.95097726
H     1.14094773    0.43926453   -2.13067970
H    -1.32334774    1.40395403   -1.16620230
H    -1.12584141   -0.02343667   -2.16117872
H    -2.46927669   -0.31294486    0.00304286
H    -1.17775425   -1.48704976   -0.22770539
H     1.70898106   -1.17294348   -0.54782623
18
0 1 0.016517
C    -0.71669997   -0.00118388    1.25561159
C     0.75014394   -0.44084021    1.25269856
C     1.47885978   -0.18521297   -0.09393704
C     0.70390183    0.62605318   -1.15876152
C    -0.83453746    0.42377087   -1.20427153
C    -1.38166812   -0.42258700   -0.05134005
H     2.42796933    0.32830640    0.09252487
H     1.28329898    0.04269464    2.07778427
H     0.77711104   -1.51661738    1.46291122
H    -1.22892211   -0.43280514    2.12212535
H    -0.78885756    1.09068050    1.35638648
H     0.90676334    1.69054702   -0.99859161
H     1.13538516    0.39138666   -2.13755523
H    -1.31539790    1.40788824   -1.15404775
H    -1.13808162   -0.01343127   -2.16110961
H    -2.47026797   -0.31425447    0.00087072
H    -1.17740164   -1.48778133   -0.22791987
H     1.75178330   -1.15361185   -0.52715321
18
0 1 0.017179
C    -0.71934921   -0.00051152    1.25529925
C     0.74632345   -0.44178130    1.25401995
C     1.48489483   -0.17047110   -0.08427825
C     0.70562936    0.61225240   -1.16974170
C    -0.83499446    0.42387586   -1.20327178
C    -1.38250396   -0.42336434   -0.05202748
H     2.41538503    0.37184842    0.11366232
H     1.27653097    0.02908914    2.08824554
H     0.76856141   -1.52028537    1.45055695
H    -1.23247904   -0.43158323    2.12159371
H    -0.79119126    1.09150277    1.35501491
H     0.91764499    1.67964108   -1.04622988
H     1.12935556    0.34307289   -2.14293945
H    -1.30709429    1.41165885   -1.14231804
H    -1.14947185   -0.00352638   -2.16097410
H    -2.47123854   -0.31533463   -0.00128833
H    -1.17722554   -1.48847498   -0.22813041
H     1.79406147   -1.13274632   -0.50614840
18
0 1 0.017776
C    -0.72193253    0.00011768    1.25500721
C     0.74267971   -0.44261909    1.25510483
C     1.49047586   -0.15546485   -0.07474081
C     0.70730868    0.59808394   -1.18036401
C    -0.83519955    0.42396886   -1.20227647
C    -1.38333217   -0.42408654   -0.05273075
H     2.40114392    0.41538778    0.13433528
H     1.27010836    0.01584830    2.09792380
H     0.76059469   -1.52362922    1.43811591
H    -1.23588090   -0.43053071    2.12104724
H    -0.79355458    1.09225522    1.35380756
H     0.92857608    1.66703946   -1.09373056
H     1.12282713    0.29434389   -2.14679695
H    -1.29845047    1.41528685   -1.13101293
H    -1.16002109    0.00625662   -2.16077848
H    -2.47216870   -0.31620619   -0.00343452
H    -1.17723561   -1.48915268   -0.22831379
H     1.83566638   -1.11032785   -0.48486098
18
0 1 0.018294
C    -0.72441540    0.00070778    1.25472219
C     0.73919447   -0.44335676    1.25594937
C     1.49556867   -0.14022247   -0.06536925
C     0.70895627    0.58357923   -1.19058012
C    -0.83516484    0.42404321   -1.20128386
C    -1.38413918   -0.42475098   -0.05343833
H     2.38515304    0.45890667    0.15459768
H     1.26403395    0.00300166    2.10683847
H     0.75324510   -1.52664128    1.42562723
H    -1.23914145   -0.42962815    2.12049742
H    -0.79590604    1.09296144    1.35272510
H     0.93950646    1.65274561   -1.14106997
H     1.11571664    0.24518316   -2.14907996
H    -1.28949152    1.41877891   -1.12017774
H    -1.16974360    0.01590001   -2.16054459
H    -2.47307239   -0.31690168   -0.00557729
H    -1.17738675   -1.48979988   -0.22849725
H     1.87656042   -1.08639106   -0.46328142
18
0 1 0.018716
C    -0.72679281    0.00126719    1.25445755
C     0.73591928   -0.44400915    1.25656507
C     1.50018089   -0.12474720   -0.05618760
C     0.71053962    0.56875635   -1.20037747
C    -0.83491872    0.42410224   -1.20030305
C    -1.38492826   -0.42536943   -0.05415450
H     2.36745327    0.50232571    0.17434597
H     1.25836000   -0.00946094    2.11500730
H     0.74653474   -1.52935794    1.41307993
H    -1.24221467   -0.42882832    2.11996340
H    -0.79818668    1.09359929    1.35174678
H     0.95045533    1.63678537   -1.18815787
H     1.10801540    0.19572771   -2.14978677
H    -1.28023757    1.42214865   -1.10977859
H    -1.17870239    0.02539776   -2.16026707
H    -2.47393336   -0.31749808   -0.00769093
H    -1.17757952   -1.49040686   -0.22870735
H     1.91669646   -1.06093134   -0.44151107
18
0 1 0.019028
C    -0.72905507    0.00177597    1.25420847
C     0.73284386   -0.44455886    1.25695667
C     1.50428772   -0.10902670   -0.04720239
C     0.71206124    0.55358556   -1.20975427
C    -0.83444903    0.42415980   -1.19934491
C    -1.38568872   -0.42593577   -0.05486356
H     2.34809244    0.54555187    0.19344472
H     1.25307601   -0.02152825    2.12248094
H     0.74047716   -1.53178569    1.40045500
H    -1.24511321   -0.42812541    2.11943554
H    -0.80036357    1.09419163    1.35084141
H     0.96146808    1.61912979   -1.23486867
H     1.09984137    0.14605700   -2.14886587
H    -1.27065709    1.42542791   -1.09983134
H    -1.18693025    0.03474206   -2.15998946
H    -2.47475919   -0.31796274   -0.00976643
H    -1.17782236   -1.49095864   -0.22893805
H     1.95596811   -1.03393391   -0.41968542
18
0 1 0.019221
C    -0.73119524    0.00222968    1.25397496
C     0.72999197   -0.44500648    1.25713890
C     1.50788647   -0.09302291   -0.03842523
C     0.71351956    0.53802939   -1.21871367
C    -0.83376653    0.42420283   -1.19841300
C    -1.38643623   -0.42643251   -0.05556196
H     2.32718520    0.58850813    0.21169077
H     1.24819029   -0.03323191    2.12930538
H     0.73510996   -1.53393529    1.38774053
H    -1.24784189   -0.42755657    2.11893440
H    -0.80244665    1.09470674    1.35006134
H     0.97248830    1.59969763   -1.28095245
H     1.09136098    0.09633293   -2.14629600
H    -1.26075688    1.42862127   -1.09034038
H    -1.19449295    0.04392386   -2.15969528
H    -2.47554744   -0.31830234   -0.01178820
H    -1.17815003   -1.49145593   -0.22919441
H     1.99412146   -1.00539254   -0.39791527
18
0 1 0.019286
C    -0.73311440    0.00256639    1.25378790
C     0.72753349   -0.44527607    1.25698365
C     1.51066580   -0.07676451   -0.03004271
C     0.71483196    0.52204058   -1.22694094
C    -0.83276981    0.42420781   -1.19755446
C    -1.38714704   -0.42677420   -0.05623344
H     2.30359013    0.63118375    0.22876350
H     1.24397782   -0.04420406    2.13506711
H     0.73087704   -1.53559279    1.37500055
H    -1.25021746   -0.42727711    2.11845110
H    -0.80434301    1.09507827    1.34955505
H     0.98350868    1.57779997   -1.32627582
H     1.08214473    0.04625270   -2.14105172
H    -1.25035027    1.43164204   -1.08166673
H    -1.20095697    0.05274582   -2.15936255
H    -2.47627466   -0.31828534   -0.01367675
H    -1.17867824   -1.49182513   -0.22951077
H     2.03082587   -0.97467407   -0.37624402
18
0 1 0.019219
C    -0.73501707    0.00291116    1.25361136
C     0.72511109   -0.44555040    1.25684690
C     1.51336135   -0.06044288   -0.02176827
C     0.71620687    0.50599328   -1.23507863
C    -0.83180348    0.42421665   -1.19671172
C    -1.38785876   -0.42712780   -0.05689964
H     2.27980529    0.67389828    0.24546420
H     1.23983075   -0.05512792    2.14091614
H     0.72673563   -1.53736416    1.36229214
H    -1.25256869   -0.42699081    2.11799927
H    -0.80623094    1.09547369    1.34905402
H     0.99470743    1.55563478   -1.37144228
H     1.07305637   -0.00385000   -2.13551977
H    -1.24003233    1.43477305   -1.07300801
H    -1.20749613    0.06152407   -2.15913954
H    -2.47701536   -0.31828687   -0.01555351
H    -1.17920021   -1.49222175   -0.22981783
H     2.06736733   -0.94369375   -0.35468558
18
0 1 0.019010
C    -0.73668234    0.00313874    1.25348389
C     0.72309805   -0.44565417    1.25638302
C     1.51523694   -0.04387361   -0.01391275
C     0.71742207    0.48952778   -1.24247027
C    -0.83053408    0.42418910   -1.19593249
C    -1.38854063   -0.42732783   -0.05755141
H     2.25351389    0.71610090    0.26085167
H     1.23638125   -0.06533162    2.14573599
H     0.72370141   -1.53864882    1.34958093
H    -1.25456815   -0.42697650    2.11755884
H    -0.80790823    1.09571470    1.34882576
H     1.00588000    1.53102390   -1.41562041
H     1.06334798   -0.05401950   -2.12733815
H    -1.22923731    1.43773343   -1.06515228
H    -1.21298491    0.06994184   -2.15890331
H    -2.47768432   -0.31796006   -0.01728232
H    -1.17990357   -1.49247364   -0.23021442
H     2.10226602   -0.91060325   -0.33341469
18
0 1 0.018661
C    -0.73819481    0.00328519    1.25339088
C     0.72134955   -0.44564773    1.25573575
C     1.51655422   -0.02715087   -0.00640712
C     0.71856214    0.47279860   -1.24932863
C    -0.82908337    0.42415118   -1.19521852
C    -1.38918774   -0.42743637   -0.05817237
H     2.22558217    0.75785828    0.27518297
H     1.23335915   -0.07505651    2.14998897
H     0.72141792   -1.53968908    1.33686577
H    -1.25635808   -0.42711081    2.11714904
H    -0.80943527    1.09586115    1.34872920
H     1.01715508    1.50475208   -1.45901270
H     1.05330019   -0.10407973   -2.11732493
H    -1.21818959    1.44062647   -1.05782743
H    -1.21788605    0.07809599   -2.15868304
H    -2.47830519   -0.31750059   -0.01892542
H    -1.18067660   -1.49265974   -0.23063288
H     2.13600678   -0.87605580   -0.31249349
18
0 1 0.018177
C    -0.73956924    0.00333714    1.25332868
C     0.71985895   -0.44551929    1.25490822
C     1.51732111   -0.01023855    0.00077009
C     0.71967058    0.45575784   -1.25567831
C    -0.82743634    0.42408142   -1.19456839
C    -1.38984506   -0.42741856   -0.05876028
H     2.19623710    0.79897075    0.28833335
H     1.23072839   -0.08439054    2.15375116
H     0.71985148   -1.54046324    1.32405952
H    -1.25792259   -0.42745212    2.11677549
H    -0.81085849    1.09592159    1.34884642
H     1.02842141    1.47680070   -1.50132446
H     1.04309927   -0.15381433   -2.10553368
H    -1.20676294    1.44347615   -1.05095868
H    -1.22229495    0.08601825   -2.15848412
H    -2.47892257   -0.31673680   -0.02046385
H    -1.18165452   -1.49273562   -0.23107247
H     2.16830487   -0.84013884   -0.29197209
18
0 1 0.017564
C    -0.74081593    0.00329178    1.25330884
C     0.71864932   -0.44527089    1.25390695
C     1.51755003    0.00680047    0.00757741
C     0.72073891    0.43847041   -1.26148436
C    -0.82560809    0.42397834   -1.19398948
C    -1.39051424   -0.42727012   -0.05931936
H     2.16534613    0.83945457    0.30030862
H     1.22847259   -0.09326366    2.15703349
H     0.71902323   -1.54098578    1.31121757
H    -1.25927060   -0.42805737    2.11641261
H    -0.81217899    1.09585038    1.34920161
H     1.03972066    1.44725192   -1.54254934
H     1.03268187   -0.20325792   -2.09186341
H    -1.19499455    1.44628601   -1.04462679
H    -1.22620120    0.09367454   -2.15830850
H    -2.47952614   -0.31568059   -0.02190692
H    -1.18283402   -1.49270541   -0.23158454
H     2.19919619   -0.80291274   -0.27191192
18
0 1 0.016828
C    -0.74190861    0.00312725    1.25334785
C     0.71771599   -0.44488719    1.25274344
C     1.51724001    0.02391337    0.01399257
C     0.72176110    0.42097382   -1.26673601
C    -0.82360630    0.42383400   -1.19350572
C    -1.39120220   -0.42696125   -0.05984213
H     2.13296098    0.87927161    0.31099798
H     1.22659540   -0.10163683    2.15984568
H     0.71893384   -1.54123509    1.29840157
H    -1.26036778   -0.42891773    2.11607609
H    -0.81337073    1.09563832    1.34982144
H     1.05102874    1.41614667   -1.58274744
H     1.02211667   -0.25235766   -2.07628858
H    -1.18292788    1.44903475   -1.03883811
H    -1.22962956    0.10099209   -2.15814631
H    -2.48011762   -0.31428118   -0.02322482
H    -1.18425555   -1.49255609   -0.23212974
H     2.22871627   -0.76445579   -0.25230170
18
0 1 0.015979
C    -0.74285024    0.00284635    1.25342703
C     0.71705633   -0.44436947    1.25142161
C     1.51639362    0.04108836    0.02001705
C     0.72272853    0.40328111   -1.27143866
C    -0.82142938    0.42364293   -1.19309761
C    -1.39189885   -0.42648928   -0.06032942
H     2.09921467    0.91832757    0.32031630
H     1.22506897   -0.10952408    2.16222717
H     0.71961551   -1.54122312    1.28557540
H    -1.26123208   -0.43009807    2.11576085
H    -0.81444252    1.09529029    1.35073998
H     1.06226772    1.38352910   -1.62181667
H     1.01150989   -0.30097769   -2.05885750
H    -1.17052552    1.45173105   -1.03361323
H    -1.23262801    0.10798222   -2.15800028
H    -2.48069909   -0.31248264   -0.02442291
H    -1.18594752   -1.49226645   -0.23272961
H     2.25680423   -0.72482833   -0.23317921
18
0 1 0.015032
C    -0.74364540    0.00242393    1.25356882
C     0.71668475   -0.44370085    1.24995995
C     1.51502307    0.05835722    0.02566268
C     0.72365321    0.38534363   -1.27562263
C    -0.81907728    0.42339182   -1.19279106
C    -1.39263835   -0.42581576   -0.06077777
H     2.06430141    0.95649808    0.32821739
H     1.22386828   -0.11697685    2.16423730
H     0.72102721   -1.54094050    1.27267899
H    -1.26184903   -0.43161320    2.11544770
H    -0.81541347    1.09477395    1.35197362
H     1.07339607    1.34946769   -1.65957294
H     1.00094860   -0.34896312   -2.03969009
H    -1.15771031    1.45437281   -1.02890106
H    -1.23527653    0.11467518   -2.15786861
H    -2.48128195   -0.31023281   -0.02547649
H    -1.18797750   -1.49183116   -0.23339157
H     2.28326937   -0.68418087   -0.21460506
18
0 1 0.014002
C    -0.74430715    0.00185265    1.25377545
C     0.71656792   -0.44287273    1.24834882
C     1.51315753    0.07566441    0.03090554
C     0.72455197    0.36720832   -1.27925436
C    -0.81654150    0.42307341   -1.19258580
C    -1.39342876   -0.42492605   -0.06118965
H     2.02827630    0.99368794    0.33475141
H     1.22296544   -0.12399202    2.16590924
H     0.72314335   -1.54037330    1.25969233
H    -1.26222341   -0.43351712    2.11512819
H    -0.81630169    1.09408784    1.35359074
H     1.08445076    1.31402583   -1.69593828
H     0.99041651   -0.39624705   -2.01878447
H    -1.14445443    1.45698005   -1.02469319
H    -1.23757292    0.12105952   -2.15775709
H    -2.48187435   -0.30745804   -0.02639971
H    -1.19038965   -1.49122335   -0.23410585
H     2.30810367   -0.64258185   -0.19665613
18
0 1 0.012906
C    -0.74483410    0.00112359    1.25404465
C     0.71672020   -0.44188031    1.24661057
C     1.51079089    0.09299370    0.03574416
C     0.72542339    0.34888661   -1.28235472
C    -0.81381797    0.42267734   -1.19248001
C    -1.39428241   -0.42380093   -0.06156464
H     1.99126726    1.02981889    0.33991581
H     1.22235609   -0.13057975    2.16725490
H     0.72597560   -1.53951899    1.24662160
H    -1.26235752   -0.43587659    2.11481175
H    -0.81713447    1.09320344    1.35562753
H     1.09537779    1.27727226   -1.73091354
H     0.97991966   -0.44270391   -1.99624252
H    -1.13076463    1.45952105   -1.02100427
H    -1.23955731    0.12713935   -2.15766237
H    -2.48249337   -0.30408109   -0.02717715
H    -1.19328869   -1.49045113   -0.23487335
H     2.33131045   -0.60014121   -0.17934010
18
0 1 0.011762
C    -0.74524212    0.00021991    1.25438845
C     0.71710891   -0.44070613    1.24473198
C     1.50795596    0.11030638    0.04018860
C     0.72629591    0.33039975   -1.28492058
C    -0.81090783    0.42219081   -1.19248473
C    -1.39521083   -0.42241071   -0.06190372
H     1.95338187    1.06484494    0.34368309
H     1.22199138   -0.13673329    2.16831685
H     0.72946940   -1.53836609    1.23347924
H    -1.26227393   -0.43873948    2.11444676
H    -0.81796422    1.09209667    1.35813263
H     1.10613016    1.23929422   -1.76447030
H     0.96958656   -0.48829505   -1.97210240
H    -1.11658166    1.46199375   -1.01784185
H    -1.24122757    0.13289761   -2.15759632
H    -2.48313158   -0.30001909   -0.02782036
H    -1.19673657   -1.48948024   -0.23570102
H     2.35288569   -0.55699384   -0.16259250
18
0 1 0.010586
C    -0.74554746   -0.00087215    1.25480713
C     0.71773351   -0.43934280    1.24275018
C     1.50468678    0.12756795    0.04423536
C     0.72717432    0.31177484   -1.28698554
C    -0.80780074    0.42160391   -1.19259957
C    -1.39624641   -0.42073176   -0.06220756
H     1.91474445    1.09872426    0.34600656
H     1.22186113   -0.14247845    2.16911305
H     0.73362759   -1.53689783    1.22022276
H    -1.26193820   -0.44216415    2.11404673
H    -0.81881406    1.09074565    1.36116161
H     1.11663010    1.20018761   -1.79657147
H     0.95946983   -0.53293729   -1.94642305
H    -1.10189749    1.46438301   -1.01518502
H    -1.24260450    0.13835845   -2.15754972
H    -2.48379988   -0.29516242   -0.02832411
H    -1.20081283   -1.48829804   -0.23658178
H     2.37278413   -0.51329786   -0.14640132
18
0 1 0.009399
C    -0.74577200   -0.00216403    1.25531006
C     0.71856978   -0.43777591    1.24064321
C     1.50101038    0.14477683    0.04790037
C     0.72807373    0.29299907   -1.28854358
C    -0.80447084    0.42089195   -1.19283105
C    -1.39741105   -0.41872792   -0.06247901
H     1.87552391    1.13137937    0.34691631
H     1.22192510   -0.14779679    2.16965646
H     0.73841487   -1.53509036    1.20687582
H    -1.26139333   -0.44624120    2.11357328
H    -0.81973619    1.08911557    1.36479003
H     1.12687405    1.16004692   -1.82716895
H     0.94964260   -0.57652525   -1.91931836
H    -1.08667470    1.46669071   -1.01307242
H    -1.24368543    0.14349777   -2.15754943
H    -2.48452437   -0.28941450   -0.02869574
H    -1.20564551   -1.48688149   -0.23750894
H     2.39100766   -0.46914948   -0.13078332
18
0 1 0.008218
C    -0.74591915   -0.00367409    1.25590857
C     0.71961312   -0.43599197    1.23842926
C     1.49694203    0.16189327    0.05117862
C     0.72900219    0.27409869   -1.28960789
C    -0.80091881    0.42005092   -1.19319654
C    -1.39871939   -0.41637683   -0.06271203
H     1.83590428    1.16273786    0.34646718
H     1.22216196   -0.15267692    2.16999668
H     0.74380490   -1.53293638    1.19348690
H    -1.26062600   -0.45104559    2.11301856
H    -0.82079611    1.08719734    1.36908111
H     1.13694937    1.11891872   -1.85621507
H     0.94009770   -0.61901505   -1.89092466
H    -1.07091834    1.46885648   -1.01151634
H    -1.24447923    0.14827519   -2.15757739
H    -2.48530415   -0.28264052   -0.02891586
H    -1.21134976   -1.48522122   -0.23846708
H     2.40758655   -0.42466333   -0.11582098
18
0 1 0.007062
C    -0.74600880   -0.00543053    1.25660089
C     0.72083933   -0.43396581    1.23613216
C     1.49254171    0.17889772    0.05408461
C     0.72998797    0.25506809   -1.29021678
C    -0.79715972    0.41905585   -1.19369303
C    -1.40020049   -0.41362531   -0.06290786
H     1.79599143    1.19275931    0.34471587
H     1.22254292   -0.15710231    2.17013322
H     0.74978408   -1.53040328    1.18005715
H    -1.25964071   -0.45666211    2.11233853
H    -0.82202682    1.08492964    1.37410675
H     1.14676568    1.07694229   -1.88371999
H     0.93085052   -0.66032549   -1.86134413
H    -1.05460523    1.47087028   -1.01054148
H    -1.24499038    0.15268728   -2.15765349
H    -2.48614260   -0.27471585   -0.02898997
H    -1.21802916   -1.48326453   -0.23945001
H     2.42251784   -0.38001532   -0.10146154
18
0 1 0.005949
C    -0.74606705   -0.00743965    1.25740726
C     0.72223543   -0.43169489    1.23375734
C     1.48782253    0.19575615    0.05661080
C     0.73104218    0.23593875   -1.29036814
C    -0.79314444    0.41789020   -1.19433546
C    -1.40188865   -0.41045055   -0.06307180
H     1.75593807    1.22141865    0.34168621
H     1.22303825   -0.16104063    2.17008709
H     0.75634222   -1.52748867    1.16663989
H    -1.25844119   -0.46316713    2.11152478
H    -0.82346661    1.08228919    1.37994349
H     1.15626669    1.03423822   -1.90966912
H     0.92196500   -0.70042895   -1.83067568
H    -1.03774796    1.47272343   -1.01018873
H    -1.24519188    0.15669759   -2.15777032
H    -2.48704417   -0.26552493   -0.02891846
H    -1.22580188   -1.48098259   -0.24048727
H     2.43584121   -0.33537725   -0.08764821
18
0 1 0.004894
C    -0.74609941   -0.00973620    1.25832338
C     0.72379206   -0.42914461    1.23131293
C     1.48283072    0.21244440    0.05878125
C     0.73218228    0.21670021   -1.29009418
C    -0.78890080    0.41652331   -1.19512092
C    -1.40380485   -0.40678711   -0.06320246
H     1.71601588    1.24869318    0.33736417
H     1.22362242   -0.16443197    2.16986676
H     0.76349334   -1.52415635    1.15329471
H    -1.25702832   -0.47068748    2.11052310
H    -0.82517264    1.07922713    1.38671127
H     1.16540278    0.99089920   -1.93407627
H     0.91353038   -0.73922430   -1.79911157
H    -1.02032891    1.47439329   -1.01054655
H    -1.24508314    0.16025595   -2.15794306
H    -2.48801002   -0.25488005   -0.02867958
H    -1.23482578   -1.47833463   -0.24157414
H     2.44756344   -0.29090401   -0.07434645
18
0 1 0.003914
C    -0.74613970   -0.01233854    1.25937539
C     0.72548151   -0.42630691    1.22883655
C     1.47763376    0.22891125    0.06057886
C     0.73342527    0.19739566   -1.28941541
C    -0.78440923    0.41493423   -1.19608531
C    -1.40599161   -0.40259569   -0.06329008
H     1.67634748    1.27455448    0.33178387
H     1.22426722   -0.16718555    2.16950881
H     0.77122698   -1.52039541    1.14015492
H    -1.25540512   -0.47930638    2.10931733
H    -0.82719713    1.07568844    1.39449520
H     1.17425084    0.94697515   -1.95701065
H     0.90557873   -0.77675307   -1.76672316
H    -1.00238678    1.47581926   -1.01170794
H    -1.24463256    0.16323671   -2.15819347
H    -2.48904394   -0.24263111   -0.02826875
H    -1.24526811   -1.47526539   -0.24269054
H     2.45781394   -0.24669877   -0.06157096
18
0 1 0.003018
C    -0.74618530   -0.01526806    1.26056053
C     0.72731002   -0.42316321    1.22634799
C     1.47226972    0.24510654    0.06201727
C     0.73477520    0.17805667   -1.28836526
C    -0.77971440    0.41310990   -1.19723914
C    -1.40845523   -0.39784184   -0.06332139
H     1.63699136    1.29900227    0.32502848
H     1.22496222   -0.16921024    2.16903490
H     0.77955850   -1.51618446    1.12731957
H    -1.25356727   -0.48912769    2.10785920
H    -0.82956773    1.07160954    1.40339201
H     1.18282999    0.90258514   -1.97846150
H     0.89803511   -0.81294752   -1.73362619
H    -0.98401207    1.47697585   -1.01372764
H    -1.24386053    0.16556769   -2.15853640
H    -2.49011820   -0.22865229   -0.02766528
H    -1.25723014   -1.47172632   -0.24384463
H     2.46667493   -0.20283991   -0.04939118
18
0 1 0.002219
C    -0.74623841   -0.01854726    1.26188978
C     0.72926588   -0.41970142    1.22389766
C     1.46677286    0.26100079    0.06307784
C     0.73624075    0.15870063   -1.28697550
C    -0.77481310    0.41101912   -1.19859208
C    -1.41122797   -0.39247186   -0.06329770
H     1.59821203    1.32196565    0.31720685
H     1.22568243   -0.17045164    2.16846304
H     0.78844888   -1.51154223    1.11488948
H    -1.25149524   -0.50022314    2.10610660
H    -0.83232022    1.06695590    1.41346890
H     1.19112112    0.85786437   -1.99841333
H     0.89089300   -0.84776538   -1.70003701
H    -0.96526796    1.47785069   -1.01667156
H    -1.24276563    0.16718122   -2.15897426
H    -2.49121055   -0.21279747   -0.02683342
H    -1.27085800   -1.46763436   -0.24504018
H     2.47416438   -0.15958399   -0.03784276
18
0 1 0.001528
C    -0.74631671   -0.02220736    1.26338772
C     0.73137160   -0.41589471    1.22148747
C     1.46120236    0.27657053    0.06376270
C     0.73781199    0.13932418   -1.28525017
C    -0.76974206    0.40863251   -1.20017247
C    -1.41432719   -0.38642516   -0.06321525
H     1.56027416    1.34347377    0.30833718
H     1.22645373   -0.17078241    2.16781915
H     0.79794549   -1.50643121    1.10303551
H    -1.24917132   -0.51272502    2.10400062
H    -0.83549826    1.06162927    1.42487438
H     1.19908172    0.81300452   -2.01686105
H     0.88422693   -0.88115167   -1.66618812
H    -0.94623806    1.47838831   -1.02067755
H    -1.24134798    0.16795941   -2.15954601
H    -2.49228333   -0.19487080   -0.02572180
H    -1.28631261   -1.46292113   -0.24626370
H     2.48032992   -0.11712174   -0.02695917
18
0 1 0.000954
C    -0.74638272   -0.02629537    1.26507391
C     0.73362666   -0.41171397    1.21920012
C     1.45558701    0.29173565    0.06404864
C     0.73948391    0.11997832   -1.28324876
C    -0.76453226    0.40590519   -1.20203470
C    -1.41778260   -0.37960981   -0.06303921
H     1.52341629    1.36351039    0.29839294
H     1.22726272   -0.17003161    2.16713761
H     0.80811193   -1.50086110    1.09197160
H    -1.24655323   -0.52680718    2.10146684
H    -0.83913658    1.05552448    1.43776341
H     1.20666655    0.76819118   -2.03379789
H     0.87809259   -0.91308874   -1.63224380
H    -0.92704061    1.47854809   -1.02592193
H    -1.23962958    0.16769931   -2.16027020
H    -2.49329327   -0.17463886   -0.02426724
H    -1.30384952   -1.45746792   -0.24749511
H     2.48525129   -0.07573722   -0.01679045
18
0 1 0.000506
C    -0.74643406   -0.03084615    1.26696158
C     0.73608261   -0.40713523    1.21708522
C     1.45002276    0.30638974    0.06392562
C     0.74121678    0.10074549   -1.28101084
C    -0.75927100    0.40282760   -1.20420427
C    -1.42161709   -0.37198145   -0.06275731
H     1.48774578    1.38208148    0.28746516
H     1.22811577   -0.16793304    2.16644279
H     0.81905169   -1.49481625    1.08202643
H    -1.24359126   -0.54257584    2.09844453
H    -0.84329207    1.04853649    1.45226934
H     1.21390240    0.72357952   -2.04929316
H     0.87240630   -0.94356034   -1.59836690
H    -0.90792661    1.47829866   -1.03267012
H    -1.23763618    0.16616446   -2.16115429
H    -2.49415020   -0.15190108   -0.02238144
H    -1.32362008   -1.45115251   -0.24869777
H     2.48905935   -0.03556352   -0.00745010
18
0 1 0.000187
C    -0.74637142   -0.03589454    1.26908627
C     0.73881067   -0.40214769    1.21524423
C     1.44454031    0.32042845    0.06334394
C     0.74291941    0.08171924   -1.27858816
C    -0.75408122    0.39934085   -1.20675977
C    -1.42581775   -0.36344632   -0.06232650
H     1.45346236    1.39911389    0.27565894
H     1.22910548   -0.16420314    2.16579186
H     0.83092188   -1.48832389    1.07360328
H    -1.24018091   -0.56010523    2.09485342
H    -0.84785662    1.04055146    1.46848396
H     1.22075323    0.67930805   -2.06343495
H     0.86700975   -0.97251981   -1.56479478
H    -0.88922928    1.47759892   -1.04122003
H    -1.23549506    0.16302868   -2.16224175
H    -2.49475217   -0.12653301   -0.01990871
H    -1.34573663   -1.44382654   -0.24983189
H     2.49187242    0.00322991    0.00088445
18
0 1 0.000000
C    -0.74607669   -0.04148665    1.27147332
C     0.74196805   -0.39672935    1.21379357
C     1.43916989    0.33375686    0.06225770
C     0.74444030    0.06297249   -1.27605127
C    -0.74914707    0.39542528   -1.20980257
C    -1.43035448   -0.35393863   -0.06167075
H     1.42089656    1.41458069    0.26312370
H     1.23031951   -0.15839759    2.16522145
H     0.84401450   -1.48140136    1.06721272
H    -1.23618396   -0.57954610    2.09063093
H    -0.85271805    1.03143306    1.48655239
H     1.22706783    0.63571158   -2.07622233
H     0.86174095   -0.99986304   -1.53196896
H    -0.87137963    1.47642279   -1.05201264
H    -1.23334649    0.15784773   -2.16353868
H    -2.49495449   -0.09834757   -0.01660733
H    -1.37030913   -1.43532250   -0.25084596
H     2.49376532    0.04031783    0.00794057
